12
Lattice="24.0 0.0 0.0 0.0 24.0 0.0 0.0 0.0 24.0" Properties=species:S:1:pos:R:3 selected_molecules=42,51 interaction_cutoff_A=1.7 source_xyz=C:\Users\shaoq\Documents\Mainz\mlip\outputsfull\r09_hot_w7n1\r09_hot_w7n1.xyz source_frame=506 source_time_ps=25.3 center_molecule=51 pbc="F F F"
O       11.14542382      14.32848547      13.81718499
H       10.81690279      14.96387947      14.50025320
H       12.03201426      14.16669015      14.08907342
O       12.22551998      12.28983285      12.41281803
H       10.97743412      11.33576425       9.89551310
H       12.37868623      10.23794141      10.76499498
O       11.29033013      11.14901435      10.72673387
H       13.67228434       9.34833274      11.02994543
H       11.62908267      12.85506583      13.09800855
O       13.32476111      10.20306551      10.93047922
H       11.93141613      11.73530154      11.27401568
H       12.78383177      11.82686515      13.13830426
