12
Lattice="24.0 0.0 0.0 0.0 24.0 0.0 0.0 0.0 24.0" Properties=species:S:1:pos:R:3 selected_molecules=36,50 interaction_cutoff_A=1.7 source_xyz=C:\Users\shaoq\Documents\Mainz\mlip\outputsfull\r09_hot_w7n1\r09_hot_w7n1.xyz source_frame=504 source_time_ps=25.2 center_molecule=50 pbc="F F F"
H        9.88558050      10.81493073      10.24441428
H       10.77978607      11.52977818      11.33553158
H       11.22293055      10.58485848       9.34584583
O       11.57236538      11.67681232      12.13808882
H       14.02345924      10.53036886      11.12817770
H       12.99541071      11.51303058      12.00696046
O       10.92867888      11.26318468       9.88913422
O       13.97097646      11.35625903      11.80448014
H       11.38290254      12.72567686      12.27638748
O       11.67388019      13.81925070      14.23044408
H       11.33645318      13.32430017      14.97303796
H       12.05773462      13.14373072      13.70324205
