14
Lattice="24.0 0.0 0.0 0.0 24.0 0.0 0.0 0.0 24.0" Properties=species:S:1:pos:R:3 selected_molecules=19,30 interaction_cutoff_A=1.7 source_xyz=C:\Users\shaoq\Documents\Mainz\mlip\outputsfull\r09_hot_w7n1\r09_hot_w7n1.xyz source_frame=502 source_time_ps=25.1 center_molecule=30 pbc="F F F"
H       10.37720416       9.90907562       8.76971097
O       11.32365061      13.02023323      11.44332517
O        9.93185108      11.02874347      11.53044360
H       12.44770444      13.35415638      12.26188802
H       11.65210959      12.72413660      10.48164356
O       10.58129437      10.75085217       9.20783497
H       10.18566295      10.85501269      10.21498849
O       13.49378362      13.11568852      12.52179569
H        8.98496161      11.29361388      11.54462473
H       10.39456112      12.04252204      11.69127099
H       13.54472367      12.54277287      13.31588778
O       14.72084649      12.08581295      15.26049103
H       15.44559563      12.59480491      15.52536559
H       14.15123956      12.66278964      14.76775147
