14
Lattice="24.0 0.0 0.0 0.0 24.0 0.0 0.0 0.0 24.0" Properties=species:S:1:pos:R:3 selected_molecules=0,57,81 interaction_cutoff_A=1.7 source_xyz=C:\Users\shaoq\Documents\Mainz\mlip\outputsfull\r09_hot_w7n1\r09_hot_w7n1.xyz source_frame=506 source_time_ps=25.3 center_molecule=0 pbc="F F F"
O       13.62727624      13.16164699      12.09456949
H       14.33125281      12.55291584      12.42274477
O       11.45253533      13.09322756      11.29345191
H       12.15654319      10.61666636      12.53478305
O       11.27268419      10.79608086      12.32710993
H       12.80265577      12.86950714      11.75483775
H       11.42009859      11.71259443      11.68907076
H       11.15108150      13.58893126      10.40796633
H       13.39097560      12.25182161      13.73342474
O       12.73205967      12.18386411      14.43692231
H       12.35423318      13.12049796      14.13020077
O       10.83290588      10.72511244       9.88719883
H       11.62322478      10.69169758      10.35631770
H       10.07999038      11.23132869      10.34763792
