12
Lattice="24.0 0.0 0.0 0.0 24.0 0.0 0.0 0.0 24.0" Properties=species:S:1:pos:R:3 selected_molecules=40,43,74 interaction_cutoff_A=1.7 source_xyz=C:\Users\shaoq\Documents\Mainz\mlip\outputsfull\r09_hot_w7n1\r09_hot_w7n1.xyz source_frame=502 source_time_ps=25.1 center_molecule=40 pbc="F F F"
H       11.27941396      13.19433169      12.39521175
H       13.84108811      11.62402325      12.67166583
O       13.03740477      11.36629449      12.32577874
O       10.97314977      12.35147316      12.10841598
H       11.75838099      11.89257488      12.70849586
H       13.07301494      11.31449622      11.39625358
H       11.79310410      10.68292883      10.55265286
H       12.91102498       9.46551603       9.72783099
O       12.04281221       9.65581521      10.22715953
O       11.75724464      14.52808692      13.29932746
H       11.98950484      15.41355055      13.32577672
H       12.36044854      13.97327812      13.84617317
