12
Lattice="24.0 0.0 0.0 0.0 24.0 0.0 0.0 0.0 24.0" Properties=species:S:1:pos:R:3 selected_molecules=18,50 interaction_cutoff_A=1.7 source_xyz=C:\Users\shaoq\Documents\Mainz\mlip\outputsfull\r09_hot_w7n1\r09_hot_w7n1.xyz source_frame=502 source_time_ps=25.1 center_molecule=18 pbc="F F F"
H       11.27105055      10.18351015      12.64544178
H       10.90202351      11.17930766      11.43745649
O       10.65075747      10.39346746      11.98926569
H       11.92315702      11.60017676      13.48102667
H       12.43398554      12.97085000      12.78443471
O       12.64034237      11.53832153      12.68029807
H       13.57809757      12.40906907       9.98149487
H       12.50316211      14.45944047      12.93117129
O       11.93123801      13.68468426      13.20564963
H       12.38074193      11.69903907      11.57309073
O       12.69114887      12.28251791      10.22328228
H       12.38092272      13.10182144       9.60255794
