12
Lattice="24.0 0.0 0.0 0.0 24.0 0.0 0.0 0.0 24.0" Properties=species:S:1:pos:R:3 selected_molecules=6,31 interaction_cutoff_A=1.7 source_xyz=C:\Users\shaoq\Documents\Mainz\mlip\outputsfull\r09_hot_w7n1\r09_hot_w7n1.xyz source_frame=504 source_time_ps=25.2 center_molecule=31 pbc="F F F"
O       11.83598670      12.24389912      10.68131235
H       11.76824488      12.55701071       9.85133666
H       14.32088998      12.13885801      12.57493266
O       10.02971937      12.83737854      12.09953721
H       10.90213498      12.78027386      11.54572624
H       12.78284297      12.17339349      11.19486573
O       14.00486254      11.55031581      11.81814890
H       13.28799992      11.34486207      12.35110967
H        9.17430420      12.83688108      11.60913532
O       12.03829160      11.31279459      13.37293702
H       12.39060694      12.25543886      13.31201227
H       12.81954899      10.79595588      14.00632233
