14
Lattice="24.0 0.0 0.0 0.0 24.0 0.0 0.0 0.0 24.0" Properties=species:S:1:pos:R:3 selected_molecules=19,62 interaction_cutoff_A=1.7 source_xyz=C:\Users\shaoq\Documents\Mainz\mlip\outputsfull\r09_hot_w7n1\r09_hot_w7n1.xyz source_frame=502 source_time_ps=25.1 center_molecule=62 pbc="F F F"
H       11.69966210      10.50476462       9.74293347
O       12.64610854      13.61592223      12.41654767
O       11.25430902      11.62443247      12.50366610
H       13.77016238      13.94984538      13.23511052
H       12.97456752      13.31982560      11.45486606
O       11.90375230      11.34654117      10.18105747
H       11.50812088      11.45070169      11.18821099
O       14.81624155      13.71137752      13.49501819
H       10.30741954      11.88930288      12.51784723
H       11.71701905      12.63821104      12.66449349
H       14.86718160      13.13846187      14.28911028
H        9.98858427      10.54591496      11.56080190
H        9.47681482       9.36241080      10.55348073
O        9.48609471       9.77736669      11.45368185
