12
Lattice="24.0 0.0 0.0 0.0 24.0 0.0 0.0 0.0 24.0" Properties=species:S:1:pos:R:3 selected_molecules=45,54 interaction_cutoff_A=1.7 source_xyz=C:\Users\shaoq\Documents\Mainz\mlip\outputsfull\r09_hot_w7n1\r09_hot_w7n1.xyz source_frame=506 source_time_ps=25.3 center_molecule=54 pbc="F F F"
O        9.99730146      12.97323035      10.21696124
O       11.98061752      11.40886442      10.54887879
H       13.52050701      11.87951367      13.13559605
H        9.31820551      12.60909875       9.60924165
H       13.52386306      10.20673429      13.31452876
H       10.55118644      13.54925322       9.58463104
H       11.14873111      11.92011099      10.26246326
O       13.51897088      11.06864816      12.51383204
H       12.44664071      11.14445244      11.56973399
H       13.24455349      12.03675674      14.72758445
O       12.52603916      12.58309921      14.62933178
H       11.88238288      12.11693654      15.24051404
