12
Lattice="24.0 0.0 0.0 0.0 24.0 0.0 0.0 0.0 24.0" Properties=species:S:1:pos:R:3 selected_molecules=14,17,69 interaction_cutoff_A=1.7 source_xyz=C:\Users\shaoq\Documents\Mainz\mlip\outputsfull\r09_hot_w7n1\r09_hot_w7n1.xyz source_frame=502 source_time_ps=25.1 center_molecule=17 pbc="F F F"
H       13.25779622      13.59330915      11.70602409
O       12.51547341      13.68906194      11.03080956
H       11.60302129      14.04787913      11.16299318
H       11.23649519      14.34738970      12.65163627
O       11.46663892      13.54614821      13.31334196
H       11.38263566      12.28095785      12.42009695
H       12.19677842      13.68580909      14.06251966
O       11.50275323      11.43391268      11.77746289
H       11.71463687      10.65901807      12.35637708
H       13.47237010       9.20248820      11.58448660
H       12.11633578       8.90787316      10.97607943
O       12.45338620       9.28521667      11.82040853
