12
Lattice="24.0 0.0 0.0 0.0 24.0 0.0 0.0 0.0 24.0" Properties=species:S:1:pos:R:3 selected_molecules=0,43 interaction_cutoff_A=1.7 source_xyz=C:\Users\shaoq\Documents\Mainz\mlip\outputsfull\r09_hot_w7n1\r09_hot_w7n1.xyz source_frame=500 source_time_ps=25.0 center_molecule=43 pbc="F F F"
O       11.69698717      12.51099332      12.85111251
H       13.34167141      10.39145709      11.93172732
H       11.49075727       9.63760165      11.31584444
H       11.24336041      12.19265378      11.95438771
O       13.56351477      11.47035682      11.90876207
O       12.14101601       9.72820903      12.03932804
H       12.72288223      11.69456009      12.59572420
H       10.97420737      13.20669716      13.17573427
H       11.74009122       9.17082487      12.58272339
H       10.82354451      14.48106957      10.20906110
O       10.77496556      14.39015762      11.22721728
H       10.86233496      13.64242860      11.81546008
