! UKS wB97M-V def2-TZVPP TightSCF 

* XYZ 0 4
N   0.0000   0.0000   0.0000
*
