27
Properties=species:S:1:pos:R:3:REF_forces:R:3:DFT_forces:R:3:FOUNDATION_forces:R:3 REF_energy=0.021392390270193573 charge=0 spin=1 external_field="0.0 0.0 0.0" config_type=ORCA_DFT source_file=C_DFTprod_cutcluster_0000.out orca_step=0 DFT_energy=-18720.17587323473 FOUNDATION_energy=-18720.197265625 pbc="F F F"
O       12.08695700      11.46589100      11.19157900      -0.00868251       0.01109925      -0.00029653       0.24115890      -0.13444032      -0.30265471       0.24984141      -0.14553957      -0.30235818
H       12.00000000      12.00000000      12.00000000       0.00992856      -0.00952029      -0.01763475       0.14624204       0.10859153      -0.42444360       0.13631348       0.11811182      -0.40680885
H       12.43644200      12.05236300      10.50056400       0.00420035      -0.01810870       0.00803904      -0.27677136      -0.27400166       0.34331275      -0.28097171      -0.25589296       0.33527371
O       12.92933800       8.31799500      11.84530900       0.01904002      -0.00819065      -0.00097837      -0.43372693       1.53266500       1.09718154      -0.45276695       1.54085565       1.09815991
H       12.68068500       8.79688700      12.68365100      -0.00160033       0.01226849      -0.00178315      -0.09157540       0.25495642      -1.22584762      -0.08997507       0.24268793      -1.22406447
H       13.15930700       7.50748000      12.24979100      -0.01054957      -0.00711034       0.00453261       0.60705951      -1.85853337       0.12742851       0.61760908      -1.85142303       0.12289590
O        9.73841300      13.71730800      11.11656000      -0.01642604      -0.00427895       0.01506999      -0.16217965       1.00260324      -0.21612109      -0.14575361       1.00688219      -0.23119108
H       10.21952400      13.22447200      11.77811400      -0.00181151      -0.00121184       0.00168774       0.01082357      -0.42702844       0.12466571       0.01263508      -0.42581660       0.12297797
H        9.34186700      13.12002300      10.48833500       0.01705461       0.00253035      -0.00562355       0.01441720      -0.44092731      -0.06037624      -0.00263741      -0.44345766      -0.05475269
O       14.52670300      11.95597300      13.57958100       0.00233188       0.00547380      -0.02284904      -0.68044451       0.81355793       0.05080120      -0.68277639       0.80808413       0.07365024
H       14.27163800      12.82857000      13.17881300       0.00336842      -0.01111700       0.01094447       0.63788174      -1.22813441       0.09098369       0.63451332      -1.21701741       0.08003922
H       15.25201500      11.59336900      13.06703900      -0.00916017      -0.00030067       0.00658195       0.14931842       0.27489481      -0.37453679       0.15847859       0.27519548      -0.38111874
O       11.48754400      13.11965500      13.19772700      -0.01295776       0.01354358      -0.01030754       0.44639044       0.58996579       0.91109593       0.45934820       0.57642221       0.92140347
H       11.96896800      13.93339600      13.46502300       0.01312405      -0.01214408       0.00748775      -0.52897304      -0.92405563      -0.06696326      -0.54209709      -0.91191155      -0.07445101
H       11.51305400      12.50097400      13.94830500      -0.00660866       0.00833473       0.00184424       0.06545659       0.32448605      -0.10447848       0.07206525       0.31615132      -0.10632272
O       11.14260500       9.01178000       9.71294600      -0.00157933       0.00172681      -0.00872929       0.66656436      -0.66752898       1.00300686       0.66814369      -0.66925579       1.01173615
H       11.06542100       9.76424500      10.33638100       0.00764139       0.00331534       0.00422997       0.31884803      -0.57057874      -0.44969415       0.31120664      -0.57389408      -0.45392412
H       11.73189400       8.36319900      10.20148500      -0.00099344      -0.00465068       0.00309629      -1.02739639       1.38467923      -0.66932284      -1.02640295       1.38932991      -0.67241913
O       14.80871900      10.78307500      10.44406400      -0.01922928      -0.01536504       0.02750703       1.34427799      -1.55471555      -1.17463592       1.36350727      -1.53935051      -1.20214295
H       14.09233000      10.78529000      11.05977000       0.00238613       0.00526947      -0.00245738      -1.17435249      -0.17433932       0.63036245      -1.17673862      -0.17960879       0.63281983
H       14.87411000       9.83124200      10.13725700       0.00473587       0.00820484      -0.02100418      -0.25738318       1.74926498       0.59546491      -0.26211905       1.74106014       0.61646909
O       12.50894300       9.90964700      14.27327700       0.03809085      -0.01097189       0.00304440      -0.48893264      -1.07278763       0.49019289      -0.52702349      -1.06181574       0.48714849
H       13.37709800      10.25890200      14.07664400      -0.01107052       0.01251496      -0.00941397       0.62007084       0.64967359      -0.03795653       0.63114136       0.63715863      -0.02854256
H       12.64575600       9.20197900      14.93553900      -0.02264967       0.00310971       0.00459186      -0.11774044       0.69170769      -0.41042867      -0.09509077       0.68859798      -0.41502053
O       14.11973100      14.42566000      11.61719600       0.02066769       0.00956370       0.00927883      -1.04001151      -0.14964043      -1.39455587      -1.06067920      -0.15920413      -1.40383470
H       13.25960000      14.89599000      11.69904000      -0.00589356       0.00549072      -0.00593367       0.85757080      -0.34065896      -0.20478658       0.86346436      -0.34614968      -0.19885291
H       14.11481500      14.12168200      10.66193500      -0.01335734       0.00052421      -0.00092497       0.15340714       0.44032438       1.65230594       0.16676448       0.43980017       1.65323091
27
Properties=species:S:1:pos:R:3:REF_forces:R:3:DFT_forces:R:3:FOUNDATION_forces:R:3 REF_energy=0.019173054100974696 charge=0 spin=1 external_field="0.0 0.0 0.0" config_type=ORCA_DFT source_file=C_DFTprod_cutcluster_0002.out orca_step=0 DFT_energy=-18719.2991863209 FOUNDATION_energy=-18719.318359375 pbc="F F F"
O       10.73777700      11.25083400      15.40964400       0.01519797       0.00296175       0.00754896      -0.05566444      -0.20202846       1.38811746      -0.07086241      -0.20499021       1.38056850
H       11.36713100      11.71789700      15.98307600      -0.00944223      -0.00898004       0.01311243      -0.21798030      -0.33386893      -0.26292339      -0.20853807      -0.32488889      -0.27603582
H       10.94169200      11.56266500      14.54608100      -0.01410853       0.00046597      -0.00976159       0.24830533       0.44770906      -1.29848530       0.26241386       0.44724309      -1.28872371
O       11.00257400      12.09166300      12.01871000      -0.04104640       0.00770477       0.00173986       1.79179488      -0.82907912      -0.08507848       1.83284128      -0.83678389      -0.08681834
H       12.00000000      12.00000000      12.00000000       0.04650527       0.01109830      -0.00298713      -1.45714182       0.33889184      -0.15975299      -1.50364709       0.32779354      -0.15676586
H       10.71944600      11.18002700      11.87124800       0.01831722      -0.01081468      -0.00698647      -0.38453108      -0.21195559       0.14503471      -0.40284830      -0.20114091       0.15202118
O       13.45039200      12.32232300       8.68431300       0.00165936      -0.00112648      -0.00857291      -0.09294492      -0.26229949      -2.92723069      -0.09460428      -0.26117301      -2.91865778
H       13.52847600      12.89322500       9.42264600      -0.00092262      -0.00171973       0.01386081      -0.09288399       1.04414199       0.98536538      -0.09196137       1.04586172       0.97150457
H       13.36351100      12.86972100       7.84284400      -0.00356053      -0.00278063      -0.00308538       0.12191807      -0.93033297       2.00870633       0.12547860      -0.92755234       2.01179171
O       10.07567600      13.90725100       9.52307800      -0.00342445       0.00048313       0.02074752      -0.01441222       0.25808391       0.48114271      -0.01098777       0.25760078       0.46039519
H        9.59699800      14.62536400      10.01124800       0.01130492      -0.00548690      -0.00687841       1.02744848      -1.33932846      -0.13594580       1.01614356      -1.33384156      -0.12906739
H       10.63929400      13.36708100      10.13280100      -0.00610625       0.00644188      -0.01670830      -0.92948353       1.05908339      -0.30384626      -0.92337728       1.05264151      -0.28713796
O        9.94368800       9.39817500      12.70721400      -0.00389585      -0.00873938      -0.00625966      -1.98539218       1.39464447      -0.34507457      -1.98149633       1.40338385      -0.33881491
H       10.57699700       8.90431200      13.19043400      -0.00814749       0.01045108       0.00219793       0.61956160      -0.61194342       1.09418661       0.62770909      -0.62239450       1.09198868
H        9.24017600       9.73614100      13.32894300       0.00022399       0.00052378       0.00965633       1.40450763      -0.71270445      -0.73107545       1.40428364      -0.71322823      -0.74073178
O       13.00573800      13.80927500      11.27704700      -0.00735984      -0.00498391      -0.01071954       1.72704139       2.88551520      -0.57863987       1.73440123       2.89049911      -0.56792033
H       13.44160700      14.63898300      10.83197900      -0.00081117      -0.01989257       0.00225426      -1.36243780      -2.25675285       1.16183425      -1.36162663      -2.23686028       1.15957999
H       13.10024600      14.03877500      12.22399300      -0.01119558      -0.00089090       0.01658445      -0.10900352      -0.26935043      -0.61096800      -0.09780794      -0.26845953      -0.62755245
O        9.76904500      14.33975400      12.69587800       0.01627297      -0.02910887      -0.03106210       0.75212867      -0.58682446       0.10934846       0.73585570      -0.55771559       0.14041056
H       10.62399700      14.49480200      13.15372800      -0.00469982       0.00087849       0.01898487      -0.96362388      -0.10460817      -0.44107000      -0.95892406      -0.10548666      -0.46005487
H        9.89463200      13.41775000      12.34192100      -0.00672526       0.02963083       0.01390667      -0.01475608       1.22245567       0.49588845      -0.00803082       1.19282484       0.48198178
O       13.75855000      11.09112000      12.23826500       0.00805467       0.03076911      -0.02228182       0.28063732      -3.36870646      -0.07499168       0.27258265      -3.39947557      -0.05270986
H       13.65374600      10.05010500      12.21916700      -0.00517005       0.01083882      -0.00094088       0.16915001       3.14580805       0.01016609       0.17432006       3.13496923       0.01110697
H       14.66163700      11.20919800      11.90192900       0.00790606      -0.01357255      -0.00530751      -0.33340808       0.16495808      -0.21099924      -0.34131414       0.17853063      -0.20569173
O       14.01880700      11.26230700      15.04920200       0.00594587      -0.01808107      -0.00138584       0.83864517      -0.61763060      -2.30063454       0.83269930      -0.59954953      -2.29924870
H       14.15497000      11.34398600      14.04074800       0.00066866      -0.00652182       0.00935537      -0.70391940       0.25147247       2.01100356      -0.70458806       0.25799429       2.00164819
H       14.35654600      10.35252600      15.13517300      -0.00544062       0.02045360       0.00298841      -0.26355532       0.42464986       0.57592232      -0.25811470       0.40419626       0.57293391
27
Properties=species:S:1:pos:R:3:REF_forces:R:3:DFT_forces:R:3:FOUNDATION_forces:R:3 REF_energy=0.006161722652905155 charge=0 spin=1 external_field="0.0 0.0 0.0" config_type=ORCA_DFT source_file=C_DFTprod_cutcluster_0003.out orca_step=0 DFT_energy=-18719.753603902347 FOUNDATION_energy=-18719.759765625 pbc="F F F"
O       12.55769600      14.81762300      12.07823900      -0.00799168      -0.01356572       0.00902819      -0.15360805       0.10437862      -0.24750552      -0.14561637       0.11794434      -0.25653371
H       11.84160100      15.01701200      11.45442100       0.01330722       0.00197683       0.00712040      -0.33066245      -0.12849979       0.39769894      -0.34396967      -0.13047662       0.39057854
H       13.21638700      14.45241500      11.48451600       0.00827337       0.00212512      -0.01636190       0.35213060      -0.26664286       0.05684591       0.34385723      -0.26876798       0.07320781
O       10.62906600      13.63226100      14.46571200       0.01080559       0.00589853      -0.00894525       3.06423758       0.67151558       2.29652546       3.05343199       0.66561705       2.30547071
H       11.05421800      13.67827200      15.40961900       0.00162902       0.01075946       0.00241224      -1.59468613      -0.18507275      -2.41054042      -1.59631515      -0.19583221      -2.41295266
H       11.46979800      13.72499100      13.93570800      -0.01348207      -0.00486350       0.00198669      -1.39582512      -0.12842677       0.07074021      -1.38234305      -0.12356327       0.06875352
O        8.57462600      12.04039200      10.45371000       0.00451255      -0.03323269      -0.01968528      -2.90681386      -0.90238369       0.07287376      -2.91132641      -0.86915100       0.09255904
H        8.01164800      11.23218700      10.28162100       0.00090730       0.01840713       0.00378986       0.72021413       1.58681598       0.26570960       0.71930683       1.56840885       0.26191974
H        9.43176000      11.72679300      10.29827200      -0.01003056       0.00736800       0.01971154       2.21990246      -0.66020843      -0.30501889       2.22993302      -0.66757643      -0.32473043
O        9.23895000       9.46202100      12.38021900      -0.00889694      -0.03093036      -0.00130140       1.62006796      -1.35905464       0.34819687       1.62896490      -1.32812428       0.34949827
H        8.63661900       9.44238600      11.66777500      -0.00086588       0.00014113      -0.00546168      -1.06551367       0.22838509      -0.88986622      -1.06464779       0.22824396      -0.88440454
H        9.26280800      10.31039400      12.80133000       0.00216283       0.01900509       0.01133282      -0.52522062       1.05739346       0.78132684      -0.52738345       1.03838837       0.76999402
O        9.80227600      14.65115500      10.98588400      -0.00047053      -0.01199246      -0.00576521       1.77313649      -1.36599446      -1.67715777       1.77360702      -1.35400200      -1.67139256
H        9.28196000      13.84745400      10.93821900       0.01026819       0.01931947       0.02120476      -0.33304232      -0.10144052       0.09792057      -0.34331051      -0.12075999       0.07671581
H        9.35426800      15.26154100      11.50249600      -0.01195309      -0.00126139      -0.00256165      -1.45774803       1.61520060       1.56611017      -1.44579494       1.61646199       1.56867182
O       13.59274600      12.21993000      10.62302600       0.00514881      -0.00705117      -0.00147974       0.69123070       0.15645385       0.20487693       0.68608189       0.16350502       0.20635667
H       13.64356100      12.16819800       9.66863900       0.00757974       0.01782412      -0.00291860      -0.17460034      -0.01715785      -0.35424060      -0.18218008      -0.03498197      -0.35132200
H       14.52470900      12.15071900      10.89140700      -0.00421309      -0.00855608      -0.00353677      -0.42741277      -0.09341708       0.14145403      -0.42319968      -0.08486100       0.14499080
O       11.45658100      11.43357800      12.49347000      -0.00393696       0.04212706      -0.00226088      -1.90874512      -2.21449502       1.34183709      -1.90480816      -2.25662208       1.34409797
H       12.00000000      12.00000000      12.00000000       0.00117619      -0.01114500       0.01084277       1.05229182       0.82859462      -1.82164529       1.05111563       0.83973962      -1.83248806
H       11.02591100      10.68507800      11.99989000       0.00051721      -0.01000279       0.00304248       1.03533061       1.20966011       0.32743027       1.03481340       1.21966290       0.32438779
O        8.65133000      11.82189100      14.01648800       0.02240557      -0.00924345      -0.02303403      -0.05776369      -0.05292606      -0.34292250      -0.08016926      -0.04368261      -0.31988847
H        9.35121600      12.48957600      14.14576600      -0.00740771      -0.01270376      -0.00080208       0.19147773      -0.19271649       0.17518907       0.19888544      -0.18001273       0.17599115
H        8.35488500      12.01722200      13.12338500      -0.00627746       0.00497535       0.00682331      -0.29690238       0.15429567      -0.09563096      -0.29062492       0.14932032      -0.10245427
O       14.16459800      10.26668100      13.65637600       0.00706873       0.00833288       0.00322319       1.53510878      -1.13638243      -0.01223578       1.52804005      -1.14471531      -0.01545897
H       13.43094200      10.42587000      13.09373000      -0.01799414      -0.00265058      -0.00828978      -1.37328503       0.47573228      -0.55615028      -1.35529089       0.47838286      -0.54786050
H       14.18982100      10.93624600      14.31930800      -0.00224302      -0.00106166       0.00188539      -0.25329924       0.71639301       0.56817851      -0.25105622       0.71745467       0.56629312
27
Properties=species:S:1:pos:R:3:REF_forces:R:3:DFT_forces:R:3:FOUNDATION_forces:R:3 REF_energy=0.018226809850602876 charge=0 spin=1 external_field="0.0 0.0 0.0" config_type=ORCA_DFT source_file=C_DFTprod_cutcluster_0004.out orca_step=0 DFT_energy=-18719.18880444015 FOUNDATION_energy=-18719.20703125 pbc="F F F"
O       12.49084500      15.54421000      14.30365600      -0.00644048      -0.00389909       0.01780674       0.89914153      -2.04302716       1.57044813       0.90558201      -2.03912807       1.55264139
H       12.61843500      16.22769300      13.65082700      -0.00266784      -0.00850702      -0.01202936       0.76459384       0.43788981       0.24809646       0.76726168       0.44639683       0.26012582
H       13.31286200      15.12176300      14.73165500      -0.00425454       0.00830575      -0.00608287      -1.65533491       1.82005223      -1.39311991      -1.65108037       1.81174648      -1.38703704
O        9.85842300      12.48031400      12.32054500       0.00793622       0.00250500       0.00151830       0.58346568      -2.65684826      -0.67070723       0.57552946      -2.65935326      -0.67222553
H        9.50996100      13.29843000      12.57066300      -0.00065123       0.00737730      -0.00218201      -1.05373930       2.03854815       0.67935282      -1.05308807       2.03117085       0.68153483
H        9.11688300      11.84734100      12.25701300      -0.00034707       0.00032281      -0.00338343       0.42266054       0.66375147      -0.14295545       0.42300761       0.66342866      -0.13957202
O       13.86340600      14.77251900      11.78722800       0.00020208       0.02092321       0.02624110       0.21724466      -0.61245708       0.03358684       0.21704258      -0.63338029       0.00734574
H       13.39872300      14.90801500      12.62489800       0.01386330      -0.01439657      -0.00588644       0.22945904      -0.49300336       0.07183745       0.21559574      -0.47860679       0.07772389
H       13.71137700      13.82248000      11.58014600      -0.01173087       0.00216282      -0.01275734      -0.01496768       0.62635142       0.09066394      -0.00323681       0.62418860       0.10342128
O       14.94805600      11.60723200      13.93232400      -0.01405646      -0.01572852       0.02416655      -0.29900436       1.24137683       0.78129413      -0.28494790       1.25710535       0.75712758
H       15.43684600      11.56182400      13.10341300       0.00820798       0.00938336      -0.00209222       0.24737105       0.52265302       0.17664293       0.23916307       0.51326966       0.17873515
H       14.99318200      12.51619200      14.34679100      -0.00155116       0.00086330      -0.02608861       0.29614159      -1.58854546      -1.10538675       0.29769275      -1.58940876      -1.07929814
O       11.19000100      15.51355800      11.61641500       0.00711768      -0.00168709      -0.00844252       0.14334976       2.15651484       0.20114523       0.13623208       2.15820193       0.20958775
H       12.14368300      15.74277200      11.71774200      -0.01033819      -0.01521118      -0.00729878      -1.21260166      -1.04363389      -0.77707393      -1.20226347      -1.02842271      -0.76977515
H       11.05729000      14.58272500      11.58969600       0.00828454       0.01768206       0.00233679       0.56086007      -1.05073656      -0.09525264       0.55257553      -1.06841862      -0.09758943
O       13.18498100       9.51311500      14.74258000       0.00368787      -0.00893215      -0.00552512       1.19597043       0.56918731      -1.45663572       1.19228256       0.57811946      -1.45111060
H       12.99478600       9.37507300      13.77876300       0.00496954      -0.00408019       0.00948688      -0.27544775      -0.32908760       1.07958635      -0.28041729      -0.32500741       1.07009947
H       14.03495800      10.01043000      14.64100300       0.00548766       0.00981916      -0.00357867      -0.99184503      -0.51883446       0.61428195      -0.99733269      -0.52865362       0.61786062
O       12.39751700       8.93366600      12.03734700      -0.00279300      -0.00075850      -0.00888526      -0.62027328      -1.53072998       0.50559015      -0.61748028      -1.52997148       0.51447541
H       12.56028700       9.78778800      11.68079500      -0.00917539       0.00221887       0.00383125       0.15200980       1.45676520      -0.66973211       0.16118519       1.45454633      -0.67356336
H       11.43563100       8.80660700      12.06188300      -0.00044134      -0.00172963       0.00170766       0.49903265       0.11836357      -0.02661102       0.49947399       0.12009320      -0.02831868
O       12.96139400      11.81696000      11.81774400      -0.00743320       0.01259510       0.00457220      -1.01444354       0.28927134       1.87659995      -1.00701034       0.27667624       1.87202775
H       13.29312200      11.73274300      12.76201500      -0.01261187      -0.01229580      -0.00457491      -0.11890880      -0.04499791      -1.24162628      -0.10629693      -0.03270211      -1.23705137
H       12.00000000      12.00000000      12.00000000       0.02062224      -0.00812253       0.00604069       0.95544438      -0.14897045      -0.48754943       0.93482214      -0.14084792      -0.49359012
O       10.43712500      11.32587000      15.06538000       0.01378895      -0.00598397       0.01864735      -1.20464276       1.42515097      -0.87080129      -1.21843171       1.43113494      -0.88944864
H       10.14078100      12.17527100      15.46841600      -0.01455943       0.00188753       0.00040852       0.47757556      -0.92743179      -0.01008448       0.49213499      -0.92931932      -0.01049300
H       10.04440100      11.45680000      14.16336100       0.00488404       0.00528566      -0.00795636       0.81688849      -0.37757229       1.01840987       0.81200445      -0.38285795       1.02636623
27
Properties=species:S:1:pos:R:3:REF_forces:R:3:DFT_forces:R:3:FOUNDATION_forces:R:3 REF_energy=0.010377746184531134 charge=0 spin=1 external_field="0.0 0.0 0.0" config_type=ORCA_DFT source_file=C_DFTprod_cutcluster_0005.out orca_step=0 DFT_energy=-18720.184934753815 FOUNDATION_energy=-18720.1953125 pbc="F F F"
O       11.59139300      12.51858100       8.04897600       0.00166686       0.00821816      -0.00347023       1.04809578       0.54466181      -0.34352805       1.04642892       0.53644365      -0.34005782
H       11.59231200      13.16795600       8.78706200       0.00714641       0.02465659       0.01055058       0.13323288      -0.01437334      -0.17215512       0.12608647      -0.03902993      -0.18270570
H       10.84876900      11.97619100       8.23251700       0.02263308       0.00559518       0.00470827      -1.00123655      -0.99903157       0.26604379      -1.02386963      -1.00462675       0.26133552
O       11.53042900      10.39273700      11.40579700       0.00536093      -0.01044676       0.00424766      -1.30727282      -0.41098285      -0.87195129      -1.31263375      -0.40053609      -0.87619895
H       10.53555500      10.21040900      11.30202300       0.01915667       0.00982204      -0.00150072       2.12489531       0.30428412       0.01197270       2.10573864       0.29446208       0.01347342
H       11.96175200      10.32293500      10.52123800      -0.01854179       0.00632799       0.00109682      -0.75477449       0.10927935       0.82123468      -0.73623270       0.10295136       0.82013786
O       14.53051500      14.97329000      11.77360300       0.01578896       0.00302889      -0.00324406       0.99238311      -0.50268290      -0.52952804       0.97659415      -0.50571179      -0.52628398
H       15.06721200      14.46975700      11.11238700      -0.01030152       0.00669420       0.01541281      -0.12334647       1.03154564       0.31038457      -0.11304495       1.02485144       0.29497176
H       13.86558000      14.30577100      11.88818700       0.00133662      -0.00113564      -0.00062942      -1.04103990      -0.30097701       0.52222801      -1.04237652      -0.29984137       0.52285743
O        9.11255600      10.68771000       8.67566600      -0.01176609       0.00221962       0.01581199      -0.03397754      -0.83526951       1.29534979      -0.02221145      -0.83748913       1.27953780
H        8.83054200      11.49025300       8.23834500      -0.00145858      -0.01006822       0.00989087      -0.51206254       0.23470903       0.31659867      -0.51060396       0.24477725       0.30670780
H        8.70100900      10.57451200       9.57916800       0.00273658       0.00597266      -0.02662811       0.47807903       0.56714848      -1.56956789       0.47534245       0.56117582      -1.54293978
O       11.43816100      14.26707300      10.04171000      -0.00648941       0.00504568      -0.02319558      -2.33160652       1.20675590      -0.02507643      -2.32511711       1.20171022      -0.00188085
H       10.51578500      14.69328200      10.05045400      -0.00274227      -0.01408485       0.00940226       2.21561052      -0.96605871       0.06754602       2.21835279      -0.95197386       0.05814376
H       11.56716400      13.86932300      10.92611500      -0.00506223      -0.00686760      -0.01285197       0.00370928       0.13368802       0.03288148       0.00877151       0.14055562       0.04573345
O       14.27719200      11.29057300       8.86648500      -0.01042212      -0.00082408      -0.00039443       1.01047622      -1.16052257       0.56677536       1.02089834      -1.15969849       0.56716979
H       13.64379400      11.01238300       8.19003000      -0.01025390       0.00093556      -0.00486704       0.10395722       0.15597475       0.11785182       0.11421112       0.15503919       0.12271886
H       14.90365300      10.54255900       9.06873600       0.02556415      -0.00748905       0.00559311      -1.16527073       1.06677500      -0.57589306      -1.19083488       1.07426405      -0.58148617
O       15.51775700      13.76790000       9.55552900      -0.00193405      -0.00565471      -0.00311065      -1.02582931      -0.96760960       1.64154613      -1.02389526      -0.96195489       1.64465678
H       16.03659200      14.06774600       8.85678300       0.00190844      -0.00887430      -0.01156628       1.29419460       0.79566413      -1.79297960       1.29228616       0.80453843      -1.78141332
H       15.09928900      12.94327700       9.27128600      -0.00821823       0.00695913       0.00422620      -0.16417179      -0.04127968      -0.14435758      -0.15595356      -0.04823881      -0.14858378
O        8.69100100       9.36488300      11.52253400       0.00389635       0.00102787      -0.00056751       1.37097859      -1.56572897      -1.32932194       1.36708224      -1.56675684      -1.32875443
H        7.87672400       9.53605500      11.95806800      -0.00477378       0.00168471      -0.00485488      -1.11699276       0.01712915       0.61986587      -1.11221898       0.01544444       0.62472075
H        8.70826200       8.40152100      11.25377300      -0.00257336      -0.01007146       0.00706636      -0.20795758       1.68478983       0.56295162      -0.20538422       1.69486129       0.55588526
O       12.11763700      12.95261100      12.25987200      -0.02822563      -0.03286523      -0.01446493       0.05374403      -0.72904361      -0.19902052       0.08196966      -0.69617838      -0.18455559
H       12.00000000      12.00000000      12.00000000      -0.00941373       0.00495133       0.00917317      -0.03886300       0.57904765       0.19145978      -0.02944927       0.57409632       0.18228661
H       11.91275900      12.99942000      13.19363200       0.02498143       0.01524179       0.01416578      -0.00495457       0.06210752       0.20868916      -0.02993600       0.04686573       0.19452338
27
Properties=species:S:1:pos:R:3:REF_forces:R:3:DFT_forces:R:3:FOUNDATION_forces:R:3 REF_energy=0.006952845455089118 charge=0 spin=1 external_field="0.0 0.0 0.0" config_type=ORCA_DFT source_file=C_DFTprod_cutcluster_0006.out orca_step=0 DFT_energy=-18720.344609654545 FOUNDATION_energy=-18720.3515625 pbc="F F F"
O        8.90675800      11.63066600      14.15340200       0.00764685       0.00094466      -0.03207978      -1.10049302      -0.20200640       0.33858058      -1.10813987      -0.20295106       0.37066036
H        8.93289500      10.68222300      14.40947300       0.00634084      -0.00641193       0.00367042      -0.23377906       1.00366722      -0.37926510      -0.24011990       1.01007915      -0.38293552
H        7.96448000      11.93540100      14.15731300      -0.01020268       0.00642149       0.01083636       1.22202774      -0.72614016       0.14181496       1.23223042      -0.73256165       0.13097860
O       12.71134400      11.31332400      11.95578500      -0.02892372       0.01383780       0.02634886       0.12164450       1.11040781       0.62587711       0.15056822       1.09657001       0.59952825
H       13.52895300      11.68730500      12.36724800       0.01588263       0.00714369      -0.00556639      -0.84056912      -0.19327997      -0.72928277      -0.85645175      -0.20042366      -0.72371638
H       12.00000000      12.00000000      12.00000000       0.02498583      -0.02282580       0.00953285       0.73706005      -0.63247152       0.27868493       0.71207422      -0.60964572       0.26915208
O        8.67543300      10.86430500      11.10367100       0.00877200       0.01988439       0.01128845       0.10313230       0.34975861       0.33636053       0.09436030       0.32987422       0.32507208
H        9.16386300      10.52892900      10.34333000      -0.00126335      -0.02017077      -0.00190636      -0.46140018      -0.23778685      -0.02320791      -0.46013683      -0.21761608      -0.02130155
H        7.73266800      10.66864000      11.03028100      -0.01052888      -0.00189465      -0.00358608       0.43143294      -0.12961703      -0.43214684       0.44196182      -0.12772238      -0.42856076
O       12.15741300      14.98806000      12.50595200      -0.02896161      -0.02543927      -0.01978857      -1.02503283      -0.68399597       0.61034554      -0.99607122      -0.65855670       0.63013411
H       11.44236000      14.30362500      12.32846700       0.01405476       0.02228412       0.02383946       0.90654497       0.90147969       0.09894968       0.89249021       0.87919557       0.07511022
H       12.03556100      15.11800500      13.46546400      -0.00671332      -0.00856722       0.00235002       0.31779511       0.12642398      -0.64036090       0.32450843       0.13499120      -0.64271092
O       13.63096200      11.83927000       9.14817200      -0.01970360       0.01607499      -0.00308796       0.81904390       0.48369658      -0.89476474       0.83874750       0.46762159      -0.89167678
H       13.04266900      11.49363400       9.80780100       0.00696186      -0.02258077      -0.00335562       0.01175550      -0.28567195       0.71827084       0.00479364      -0.26309118       0.72162646
H       14.50248900      11.96889100       9.57222900       0.01398809       0.00120736      -0.00100187      -0.81097757      -0.14710619       0.11953661      -0.82496566      -0.14831355       0.12053848
O       15.41032800      12.69486200      11.35700200      -0.00094869      -0.01037647      -0.01107524      -0.02331456      -0.72014029       0.16966732      -0.02236587      -0.70976382       0.18074256
H       15.01524200      13.59027700      11.25350800      -0.00614340       0.01265666       0.00414997       0.45866262       0.00686994      -0.08056419       0.46480602      -0.00578672      -0.08471416
H       16.37054200      12.76229600      11.40066600       0.00405369      -0.00143557       0.00687732      -0.27978196       0.21818980      -0.01998267      -0.28383565       0.21962537      -0.02685999
O       12.78696300       8.80148900      10.99293400       0.01609643       0.01539296      -0.01010760       0.07525985       0.04694182       1.27821843       0.05916342       0.03154886       1.28832603
H       12.90455200       8.10056200      11.69302600      -0.01924261       0.01042493       0.00896274      -0.19654265       1.60756453      -1.00532378      -0.17730004       1.59713960      -1.01428652
H       12.78130300       9.73145500      11.40712800       0.00734277      -0.02020803      -0.01041796       0.02805963      -1.95654383      -0.32563358       0.02071686      -1.93633580      -0.31521562
O       10.32939100      13.04835500      12.27978500       0.01339700       0.00206516      -0.01896788      -0.54496608      -0.62937715      -1.33672358      -0.55836308      -0.63144231      -1.31775570
H       10.01236200      12.78938700      11.38869300      -0.01549766       0.01218742      -0.00922095       0.25660604       0.40319565       0.45711292       0.27210370       0.39100823       0.46633387
H        9.73296600      12.49887200      12.81902200      -0.01238724      -0.00531889       0.03038930       0.22884255      -0.10501492       0.61877536       0.24122979      -0.09969603       0.58838606
O       14.59420000      15.15336800      11.05546600       0.01273269      -0.00849457      -0.01638790      -0.33563739       0.39929132      -0.14082663      -0.34837008       0.40778589      -0.12443873
H       13.69999100      15.33146700      11.40626900       0.01467324       0.00780120      -0.00547305       0.14561824      -0.17908079       0.12990716       0.13094500      -0.18688199       0.13538021
H       15.19998500      15.66567800      11.59468000      -0.00641196       0.00539707       0.01377715      -0.01099157       0.17074600       0.08598063      -0.00457961       0.16534893       0.07220348
27
Properties=species:S:1:pos:R:3:REF_forces:R:3:DFT_forces:R:3:FOUNDATION_forces:R:3 REF_energy=0.006434693037590478 charge=0 spin=1 external_field="0.0 0.0 0.0" config_type=ORCA_DFT source_file=C_DFTprod_cutcluster_0007.out orca_step=0 DFT_energy=-18720.075596556962 FOUNDATION_energy=-18720.08203125 pbc="F F F"
O       10.44256500      12.42885900       8.51585600      -0.01495944      -0.02809496       0.00312581      -0.74535196      -0.20607666      -1.69255076      -0.73039252      -0.17798170      -1.69567657
H       10.08065100      12.48858200       7.58626900       0.00228360       0.02179417       0.00593720       0.68032953       0.00034797       1.68024931       0.67804593      -0.02144620       1.67431211
H       10.76439200      13.29534100       8.75663900       0.01086185       0.00001734      -0.00620387       0.10674121       0.37780317      -0.20356464       0.09587936       0.37778583      -0.19736077
O       10.60640100      11.10831300      10.89465800      -0.02680789       0.00239596      -0.00631875       0.01122837       0.56477335       0.84373194       0.03803626       0.56237739       0.85005069
H       10.59179200      11.46567100      10.00393700       0.00794634      -0.00592583      -0.00322803      -0.09620169      -0.04069918      -0.45880475      -0.10414803      -0.03477335      -0.45557672
H       11.06468000      10.25878000      10.87578700       0.01381708       0.01436631       0.00291252       0.14885645      -0.54269441      -0.01929356       0.13503937      -0.55706072      -0.02220608
O       14.53828400       9.85237300      10.17729000      -0.00436069       0.01209494      -0.00768619      -1.18801667      -0.03435729       0.55356241      -1.18365598      -0.04645223       0.56124860
H       14.14599300      10.74836300      10.23473000      -0.00468070       0.02240226      -0.00410080       0.46141016      -0.30039933      -0.38761646       0.46609086      -0.32280159      -0.38351566
H       15.42301100       9.93382400       9.84654300       0.00406670      -0.00738085       0.00520066       0.51973867       0.14740280      -0.22173972       0.51567197       0.15478365      -0.22694038
O        8.48587600       9.37707800      11.91647800       0.01275349       0.00780918       0.00174849      -1.50801634      -3.09666799      -1.19727356      -1.52076983      -3.10447717      -1.19902205
H        8.98746100      10.13749600      11.89215800      -0.00814084      -0.01360872      -0.00417150       1.82813188       2.91119621       0.13741802       1.83627272       2.92480493       0.14158952
H        8.70220500       9.00213200      11.03115800      -0.00588413       0.00323625      -0.00415769      -0.41726436       0.16525875       1.07627091      -0.41138023       0.16202250       1.08042860
O       11.82433100       8.61657800      11.04020500       0.00173633      -0.01154943       0.00267032       0.65609138      -0.36677705      -2.29069826       0.65435505      -0.35522762      -2.29336858
H       11.66695200       8.19060700      10.14464500      -0.00629760      -0.00137194       0.00443037      -0.06629395       0.49647949       1.63399311      -0.05999635       0.49785143       1.62956274
H       12.73905200       8.93716600      10.86855400      -0.00291773      -0.00214580      -0.00067532      -0.22939461      -0.19568467       0.51799685      -0.22647688      -0.19353887       0.51867217
O       12.84748200      12.39865500      12.41730700       0.02839958       0.01342421      -0.00867639      -2.19720543      -0.41043968      -0.97612582      -2.22560501      -0.42386389      -0.96744943
H       12.46327400      13.21079600      12.79924200      -0.00279056      -0.00306752       0.00368796       0.59500314      -0.02965608      -0.05371745       0.59779370      -0.02658856      -0.05740541
H       12.00000000      12.00000000      12.00000000      -0.00539692      -0.00138258       0.00340811       1.68160979       0.27836950       0.68884960       1.68700671       0.27975208       0.68544149
O       13.92798800      12.57138900       9.67275800       0.00978369      -0.03376215       0.00813788      -0.27230000      -0.08509200      -0.36834455      -0.28208369      -0.05132985      -0.37648243
H       13.43588700      12.90974400      10.43301500      -0.00584296       0.00337307       0.00605922       0.24605125      -0.11752333       0.45313038       0.25189421      -0.12089640       0.44707116
H       14.85993500      12.69002100       9.86531400      -0.00511979       0.01484685      -0.00127048       0.07201434       0.31660952       0.15894977       0.07713413       0.30176267       0.16022025
O       15.76666300      11.96495600      13.32815700      -0.00271184       0.00168092       0.00378564      -0.68043572      -0.05676369       0.97004870      -0.67772388      -0.05844461       0.96626306
H       14.87768800      11.92359000      12.95669300       0.00139511      -0.00528242       0.00235135      -0.21238887       0.00844710       0.00810962      -0.21378398       0.01372952       0.00575827
H       16.35200600      12.04063600      12.59889500      -0.00102514       0.00431739      -0.00373162       0.77381402       0.06204515      -0.95858349       0.77483916       0.05772776      -0.95485187
O       11.91023200      15.06996000      12.53156800      -0.00937111      -0.00930671      -0.00322341      -1.39251179       0.04748884      -0.86627018      -1.38314068       0.05679555      -0.86304677
H       10.97656500      15.00953500      12.86706500       0.00219995      -0.00157065       0.00210539       1.25533921       0.21715539      -0.61545684       1.25313926       0.21872604      -0.61756223
H       11.83863300      15.17137700      11.54330200       0.01106325       0.00269068      -0.00211694      -0.03097804      -0.11054582       1.58772919      -0.04204129      -0.11323650       1.58984613
27
Properties=species:S:1:pos:R:3:REF_forces:R:3:DFT_forces:R:3:FOUNDATION_forces:R:3 REF_energy=0.00995488019179902 charge=0 spin=1 external_field="0.0 0.0 0.0" config_type=ORCA_DFT source_file=C_DFTprod_cutcluster_0008.out orca_step=0 DFT_energy=-18720.54863886981 FOUNDATION_energy=-18720.55859375 pbc="F F F"
O        8.40734300       7.77986100      11.45650800      -0.01928853      -0.01048072      -0.00505116      -0.92136990       0.93625860      -1.51429107      -0.90208137       0.94673932      -1.50923991
H        8.04423000       7.44241000      10.60646200       0.01228249       0.00474619       0.00387975       0.50632265       0.13151867       1.08228549       0.49404016       0.12677248       1.07840574
H        8.79955300       7.06470200      11.92271600       0.00289451      -0.00205188       0.00150310       0.44726323      -1.07995777       0.37714996       0.44436872      -1.07790589       0.37564686
O        8.09893300      12.07424800      15.31086900       0.00230749       0.04351233       0.03076431      -0.06676651      -0.32868893       1.07495245      -0.06907400      -0.37220126       1.04418814
H        8.08121100      11.12568900      15.59857100       0.01255446      -0.03193501       0.00803039       0.13077439       0.52085659      -0.59487238       0.11821993       0.55279160      -0.60290277
H        7.45971300      12.51513900      15.88871000      -0.01162924       0.00351475      -0.00909210       0.05869994      -0.04027675      -0.25677121       0.07032918      -0.04379150      -0.24767911
O        8.13007600       9.51732000      14.60650700      -0.03431925      -0.02896140      -0.03546212      -0.27286863      -0.97485266       0.51243653      -0.23854938      -0.94589126       0.54789865
H        8.06488600       8.53301600      14.75786200       0.00977815       0.00176109       0.03286930       0.57480425       1.83674420      -0.68399988       0.56502610       1.83498311      -0.71686918
H        8.82945200       9.76078700      13.96132100       0.01543129       0.01484035      -0.02195853      -0.10351329      -1.03312923       0.07125988      -0.11894458      -1.04796958       0.09321841
O        8.68277300      15.06537300      12.19681800       0.00258558       0.01105016      -0.00033132       1.70428651       1.27309221       1.77200063       1.70170093       1.26204205       1.77233195
H        8.11357700      14.31906600      12.12655300      -0.00467345      -0.00048445       0.00462263      -0.76266608      -1.31252049       0.01948351      -0.75799263      -1.31203604       0.01486088
H        9.04768100      15.02469800      13.14162400      -0.00435158       0.00042254      -0.00462383      -0.87390985      -0.27336377      -1.76199132      -0.86955827      -0.27378631      -1.75736749
O        7.44220700      12.23150100      12.66471800      -0.00026637      -0.01229997      -0.02454901      -0.04739058      -0.30924578      -0.24809651      -0.04712421      -0.29694581      -0.22354750
H        7.69920100      12.00226000      13.58636400      -0.00969791      -0.00466456       0.00432942      -0.31903922      -0.05056188      -0.72283306      -0.30934131      -0.04589732      -0.72716248
H        7.25244400      11.41718700      12.16015700       0.00332742       0.01246591       0.01093453       0.27020373       0.55527456       0.69760251       0.26687631       0.54280865       0.68666798
O        9.98970800      14.25268800      14.75085900       0.00144696       0.00770789       0.01086439      -0.94774819      -1.13762170       0.89803935      -0.94919515      -1.14532959       0.88717496
H        9.48945000      13.46308300      15.17547200       0.01743841       0.00356691      -0.00484313       0.99525159       1.74794333      -0.95799424       0.97781318       1.74437642      -0.95315111
H        9.92242400      15.01218100      15.34951300      -0.00608902      -0.00254670      -0.00643721      -0.07309559      -0.51374939       0.03730229      -0.06700657      -0.51120269       0.04373950
O       10.43249400       9.57638400      12.72213700       0.03235998       0.00028534      -0.01755867       1.25770976       2.46447368       1.54622438       1.22534978       2.46418834       1.56378305
H       10.97513900      10.45246400      12.72310000       0.00161849       0.00171658       0.01082769      -1.15248741      -1.90015784      -0.24957001      -1.15410590      -1.90187442      -0.26039770
H       10.42176600       9.30406500      11.82186000      -0.01750281      -0.00035141       0.00834864      -0.22419682      -0.28826727      -1.16175038      -0.20669401      -0.28791586      -1.17009902
O       12.00000000      12.00000000      12.00000000      -0.01752251      -0.00686661      -0.01068836       0.31542579       1.20835980       0.18580778       0.33294830       1.21522641       0.19649614
H       12.96670800      12.02459100      12.09125100       0.00946224       0.00087867       0.00650258      -0.40145465      -0.23319239      -0.05594798      -0.41091689      -0.23407106      -0.06245056
H       11.78441000      12.97631400      12.03437900      -0.00890563       0.00125277       0.00613853       0.06806837      -0.99619585      -0.01294545       0.07697400      -0.99744862      -0.01908398
O       11.63072700      14.94885300      12.08352000       0.02303984       0.00918752      -0.00423118       0.06543669      -0.62553638      -1.41783890       0.04239685      -0.63472390      -1.41360772
H       11.57705700      15.16558000      12.99516700       0.00301086      -0.00831308       0.01559723      -0.09410639       0.20903955       1.34886170      -0.09711725       0.21735263       1.33326447
H       10.70311800      14.86537500      11.80493200      -0.01529172      -0.00795310      -0.01038624      -0.13363387       0.21375690       0.01549589      -0.11834215       0.22171000       0.02588213
27
Properties=species:S:1:pos:R:3:REF_forces:R:3:DFT_forces:R:3:FOUNDATION_forces:R:3 REF_energy=0.005879557214939268 charge=0 spin=1 external_field="0.0 0.0 0.0" config_type=ORCA_DFT source_file=C_DFTprod_cutcluster_0009.out orca_step=0 DFT_energy=-18719.615214192785 FOUNDATION_energy=-18719.62109375 pbc="F F F"
O       12.84090200      14.49234400      14.38869100       0.02532346      -0.00564454      -0.00989575       1.35343904       1.33111050      -1.20433325       1.32811558       1.33675504      -1.19443750
H       13.11106500      15.38901800      14.68621100      -0.01132571      -0.00702340       0.00451069      -0.44994401      -0.78876669       0.14145635      -0.43861830      -0.78174329       0.13694566
H       13.34489800      14.45875500      13.52310900      -0.00822015       0.00619045      -0.00360561      -0.78946490      -0.30555177       0.76020646      -0.78124475      -0.31174222       0.76381207
O       11.40471600      12.42267900      15.40342000       0.00311837      -0.00784713       0.01481507      -1.10481658       0.55680668       1.53395651      -1.10793495       0.56465381       1.51914144
H       11.76540000      13.27546900      15.12653000      -0.01403439       0.01643910      -0.00439149       0.56611258       0.09732341      -0.11902614       0.58014697       0.08088431      -0.11463465
H       10.85859100      12.66560300      16.19372100      -0.00139560       0.01117735      -0.00580883       0.67549740      -0.56692166      -0.92359185       0.67689300      -0.57809901      -0.91778302
O       10.04268200      11.90617700      13.09969700       0.00222834      -0.01095036      -0.04490841      -0.71634899      -0.56775418       1.32171785      -0.71857733      -0.55680382       1.36662626
H       10.24965000      12.38245100      13.96121500       0.00006037       0.01039332       0.01861644      -0.51716561      -1.09986860      -1.43581390      -0.51722598      -1.11026192      -1.45443034
H        9.50864900      11.10516300      13.33555500       0.00673696      -0.01662961       0.01585753       0.85845038       1.11858114      -0.14854570       0.85171342       1.13521075      -0.16440323
O       12.18070200       9.78117700      14.68144800      -0.01820633      -0.00247343      -0.00861027      -0.00692794      -0.34820761      -0.31086131       0.01127839      -0.34573418      -0.30225104
H       12.02126000      10.70633400      14.87186600       0.00223683       0.00100246      -0.00839211      -0.19883643       0.51698080       0.09139866      -0.20107326       0.51597834       0.09979077
H       12.72449600       9.46761300      15.40213900       0.01273999       0.00194523       0.00762895       0.18955933      -0.18840778       0.15488532       0.17681934      -0.19035301       0.14725637
O       11.81923800      12.31220100      11.11750900       0.00847630      -0.00997339      -0.00869830       0.92088042       0.63572587      -0.95404698       0.91240412       0.64569926      -0.94534868
H       12.00000000      12.00000000      12.00000000      -0.01373492      -0.00790186       0.00048825      -0.31001891      -0.30117200       0.44882008      -0.29628399      -0.29327014       0.44833183
H       10.86901200      12.36299400      11.06595400       0.00345416       0.00484389       0.00857242      -0.50867038      -0.09975881       0.47934504      -0.51212454      -0.10460270       0.47077262
O       13.32293900      14.86184500      11.40273800       0.01709210      -0.00296227      -0.00523439       0.04109924       1.80009564       0.10439122       0.02400714       1.80305791       0.10962561
H       12.52122700      14.39708300      11.26412000       0.00043938      -0.00174671      -0.00145810      -1.13579514      -2.64687377      -0.11220938      -1.13623452      -2.64512706      -0.11075128
H       12.89768700      15.69001400      11.12116100      -0.00480100       0.00573008       0.00523592       1.18216566       0.62044899       0.17448921       1.18696666       0.61471891       0.16925329
O       11.45598500       7.54087100      12.96141000       0.00258694      -0.00017340      -0.00419894       0.37897904       0.75349413      -0.02182013       0.37639210       0.75366753      -0.01762119
H       10.69634700       7.19133700      13.46180200       0.00034763       0.00046708       0.00135309       0.68276848       0.94997903      -0.09312032       0.68242085       0.94951195      -0.09447341
H       11.73868400       8.46703500      13.23136300      -0.00541275       0.00253497       0.00310374      -1.06459635      -1.74487235       0.18976640      -1.05918360      -1.74740732       0.18666266
O       11.16642900      10.25554200       8.93256000      -0.00165369       0.01678765       0.01709443      -0.97786923      -0.95051598      -1.13717634      -0.97621554      -0.96730363      -1.15427077
H       12.02697900      10.22932600       9.33503500      -0.00127442      -0.00681816      -0.00954118       0.09381375       0.82054074       0.60573951       0.09508817       0.82735890       0.61528069
H       10.62609800      11.02502700       9.12408800       0.00284473      -0.00332805      -0.00158353       0.84614579       0.06099619       0.42837693       0.84330106       0.06432424       0.42996046
O       10.18189800      14.71719100      13.21575100      -0.01197828      -0.00088880       0.01184816       1.54010664       1.35570624      -0.83510064       1.55208492       1.35659504      -0.84694880
H       11.13867400      14.68337000      13.54366300      -0.00840708       0.01377190      -0.00370352      -1.68788477       0.33516333      -0.77791761      -1.67947769       0.32139143      -0.77421409
H       10.16486800      15.37982600      12.45662300       0.01275915      -0.00692268       0.01090570       0.13932146      -1.34428139       1.63901396       0.12656231      -1.33735871       1.62810826
27
Properties=species:S:1:pos:R:3:REF_forces:R:3:DFT_forces:R:3:FOUNDATION_forces:R:3 REF_energy=0.01800769417604897 charge=0 spin=1 external_field="0.0 0.0 0.0" config_type=ORCA_DFT source_file=C_DFTprod_cutcluster_0010.out orca_step=0 DFT_energy=-18719.046445430824 FOUNDATION_energy=-18719.064453125 pbc="F F F"
O       10.55850100      12.10484100      16.10506300      -0.01754919       0.01295661      -0.00070740      -0.16076204       0.37279003      -0.37470345      -0.14321285       0.35983342      -0.37399605
H       10.29884200      12.77841600      16.78563300       0.00234733      -0.00442919       0.01670744       1.15072487      -0.73344621      -1.41538463       1.14837754      -0.72901702      -1.43209207
H       11.34681100      12.28617400      15.46998200      -0.01490683       0.00268666      -0.01134044      -1.27485794       0.49174933       2.02329034      -1.25995111       0.48906267       2.03463078
O        8.37015200      11.48764900      11.03687400      -0.01533338      -0.01191308      -0.00080951      -0.39852503       0.70417533      -0.20696621      -0.38319165       0.71608841      -0.20615670
H        8.55845600      11.03453500      10.22531300       0.00952539       0.00589064       0.00972672       0.48269653      -0.99497673      -0.43850954       0.47317114      -1.00086737      -0.44823626
H        7.94204300      12.24951700      10.62022200       0.00072649       0.00684469      -0.01545554      -0.04680102       0.41348057       0.70180184      -0.04752751       0.40663588       0.71725738
O       11.21834500       8.56194500      13.10285400       0.01277607       0.00473512       0.00034399       0.55822521       0.13632453      -0.10319807       0.54544914       0.13158941      -0.10354206
H       11.82792900       8.20341000      13.77353200      -0.00401848      -0.00714060       0.00148692      -0.32204031       0.41598246      -0.48022652      -0.31802183       0.42312306      -0.48171344
H       11.65872000       9.33542400      12.70132600      -0.01246430       0.00387898       0.00350309      -0.23583682      -0.43705991       0.58881373      -0.22337252      -0.44093889       0.58531064
O        8.93567900      15.47905700      11.48302900       0.00657072       0.02257101      -0.00205134       0.29682859      -0.44634874       1.32670440       0.29025787      -0.46891975       1.32875574
H        8.53732900      16.20746000      12.01766100       0.00214356      -0.01656541      -0.00155092       0.56822073      -1.15212211      -0.52654875       0.56607717      -1.13555670      -0.52499783
H        9.25610500      14.72934300      12.13552100      -0.00046807      -0.02600822       0.01321227      -1.29031974       2.25145402      -1.58876627      -1.28985167       2.27746224      -1.60197854
O       12.79888900      12.59347100      14.75240200       0.00454877      -0.01432585      -0.03313177       0.48730184       1.85396195       1.46871276       0.48275307       1.86828780       1.50184453
H       13.09812900      13.53804300      14.68764700       0.00032487       0.01006513       0.00801199      -0.38789002      -1.56028790      -0.21523868      -0.38821489      -1.57035303      -0.22325067
H       12.79782500      12.19419700      13.90077900       0.01893905       0.00897370       0.01863109       0.11000728      -0.34219308      -1.73168768       0.09106823      -0.35116678      -1.75031877
O       11.68249800      10.45762800       9.90114300      -0.00167167       0.02926658      -0.00016428      -1.31257927      -2.78868796      -1.11348964      -1.31090760      -2.81795454      -1.11332536
H       10.92271000       9.95291500       9.47054600      -0.00363742      -0.00149310       0.00945445       0.88957842       1.58674013       0.60120465       0.89321584       1.58823323       0.59175020
H       12.17981800       9.64393100      10.11979100       0.00377055      -0.01142871      -0.01073016       0.46141442       0.76533771       0.17453097       0.45764387       0.77676642       0.18526113
O       11.56292300      13.25430700       8.96224900       0.01307400      -0.01772360      -0.00123916      -1.08891837       4.34242531      -0.31817157      -1.10199237       4.36014891      -0.31693241
H       11.91220300      12.43634100       9.18325200       0.00140071       0.02090214      -0.01432134       1.43268538      -1.97352304       1.28335117       1.43128467      -1.99442518       1.29767251
H       11.85579300      14.02978000       9.54060100      -0.01164391      -0.00282493      -0.00467276      -0.38614445      -2.35381165      -1.01181602      -0.37450054      -2.35098672      -1.00714326
O        9.55812100      13.80489700      13.28578100      -0.00314495       0.01731587      -0.01644182       0.21318987      -1.70581328       2.52877903       0.21633482      -1.72312915       2.54522085
H        9.96640200      14.26924000      14.04185500      -0.00487517      -0.01396473      -0.00132518      -0.06759426      -0.01434815      -0.57768815      -0.06271909      -0.00038342      -0.57636297
H        9.15302400      13.03385800      13.77927700       0.02412268      -0.00432337       0.01878266       0.43129235       0.82660299      -1.11885543       0.40716967       0.83092636      -1.13763809
O       12.00000000      12.00000000      12.00000000      -0.02864650       0.00294468      -0.01219047       0.08436587       0.84035495       1.17243444       0.11301237       0.83741027       1.18462491
H       11.64684300      11.41775800      11.31266000      -0.00074682       0.00434824       0.02660397      -0.41930962       0.36491140      -0.01757380      -0.41856280       0.36056316      -0.04417777
H       11.32475400      12.65128300      12.29551100       0.01883608      -0.02123830      -0.00033198       0.22504744      -0.86367193      -0.63079892       0.20621136      -0.84243363      -0.63046694
27
Properties=species:S:1:pos:R:3:REF_forces:R:3:DFT_forces:R:3:FOUNDATION_forces:R:3 REF_energy=-0.006288918884820305 charge=0 spin=1 external_field="0.0 0.0 0.0" config_type=ORCA_DFT source_file=C_DFTprod_cutcluster_0011.out orca_step=0 DFT_energy=-18719.383242043885 FOUNDATION_energy=-18719.376953125 pbc="F F F"
O       13.35090300      14.49618900      10.04830600       0.00032702      -0.00880167       0.02125174       1.84919014      -1.08758268       1.15345425       1.84886312      -1.07878101       1.13220251
H       14.22672100      14.06390800       9.79311500       0.00146102       0.00920581      -0.00348066      -1.79403437       0.99437057       0.38708614      -1.79549539       0.98516476       0.39056680
H       13.43106200      14.51011800      11.05776300       0.00504938      -0.00027988      -0.02974826      -0.02995932      -0.05587229      -1.94068676      -0.03500870      -0.05559241      -1.91093850
O       14.28938500      14.67934900      12.67048900       0.01044810       0.00802178      -0.00238388       0.00669767       0.41040451       0.24821920      -0.00375043       0.40238273       0.25060308
H       15.00635500      15.32073500      12.58634100      -0.00335672       0.00136337       0.00398726       0.09305790      -0.16500534      -0.05245442       0.09641462      -0.16636871      -0.05644168
H       13.56182000      15.21682700      13.00756400      -0.00241731      -0.00135180       0.00248421      -0.10640558      -0.13972589       0.20477105      -0.10398827      -0.13837409       0.20228684
O       12.60990700       8.79044000      11.02918200      -0.00309825       0.00314951       0.00171865       1.26962328      -0.82566541      -0.94495844       1.27272153      -0.82881492      -0.94667709
H       12.36993500       9.69811200      10.81826000      -0.00669559      -0.01006403       0.00412687      -0.27292164       0.18244863      -0.37390507      -0.26622605       0.19251266      -0.37803194
H       13.23126400       8.44378700      10.32534300       0.01054879       0.00268284      -0.00494912      -1.44079737       0.70559237       0.95460841      -1.45134616       0.70290953       0.95955753
O       11.39847800      12.06721000      11.21553700      -0.02970532       0.02717019       0.03064504       0.72980913      -0.36477297      -0.29356858       0.75951445      -0.39194316      -0.32421362
H       11.89428200      12.29408500      10.39135300       0.01331428       0.00083652      -0.00452506      -0.36024007      -0.08359382       1.21121038      -0.37355435      -0.08443034       1.21573544
H       12.00000000      12.00000000      12.00000000      -0.01080287      -0.00878507      -0.02595952      -0.10724833       0.32671273      -0.92706212      -0.09644546       0.33549780      -0.90110260
O        9.12246100      13.48918400      10.82416400       0.00015588      -0.00162821       0.02422361      -2.09357886      -3.61871057       1.49785905      -2.09373474      -3.61708236       1.47363544
H        9.61254000      14.18368300      10.56068200      -0.00362922       0.01111955      -0.01857423       2.22703527       4.10446805      -1.61424755       2.23066449       4.09334850      -1.59567332
H        9.84245100      12.89426800      11.10415800       0.01000280      -0.02158775      -0.01016087      -0.39284670      -0.31114881       0.05977646      -0.40284950      -0.28956106       0.06993733
O       15.20487800      10.70248800      10.96971700      -0.01908561      -0.04416355       0.01105029      -0.23216894       0.44477532      -1.88839977      -0.21308333       0.48893887      -1.89945006
H       15.23155900      11.27463300      10.15491900      -0.01196157       0.01789639      -0.00241093       0.19797100      -0.71571388       1.26824363       0.20993257      -0.73361027       1.27065456
H       15.04940700       9.80649500      10.61214400       0.00836812       0.00413373       0.01998362       0.30052321       0.38259262       0.54791555       0.29215509       0.37845889       0.52793193
O       12.55830700      10.93237500       8.53239900       0.00081287       0.02141612       0.01041177       1.26641927      -0.55663688      -0.05325660       1.26560640      -0.57805300      -0.06366837
H       13.38023900      10.89078100       9.07152100       0.01396034      -0.00745591       0.00630952      -0.86584677       0.08498031      -0.56494736      -0.87980711       0.09243622      -0.57125688
H       12.78928900      10.42083100       7.72756700      -0.00492795      -0.00653711      -0.01560598      -0.33802034       0.48525935       0.61771817      -0.33309239       0.49179646       0.63332415
O       13.55462300      11.85302000      12.99723200       0.02117534      -0.01095987       0.00521504      -0.84412383       0.33604264       0.98766678      -0.86529917       0.34700251       0.98245174
H       14.02951300      11.42105700      12.31409900       0.00666934       0.00306430      -0.01982014       0.81515330      -1.18261072      -1.22918980       0.80848396      -1.18567502      -1.20936966
H       14.07375000      12.64697100      13.09601700      -0.01341312       0.00605856       0.00706467       0.06932307       0.79101728       0.36682343       0.08273619       0.78495872       0.35975876
O       14.60580400       8.35966800      12.83179300       0.02868799      -0.00643267       0.01655840      -0.32533991       2.18953691      -0.57989735      -0.35402790       2.19596958      -0.59645575
H       13.91784600       8.75127600      12.20107700      -0.02994805       0.00706121      -0.02783362       0.68612171      -1.05744699       1.30428453       0.71606976      -1.06450820       1.33211815
H       14.94555800       9.18742500      13.26202900       0.00806019       0.00486755       0.00042236      -0.30739289      -1.27371514      -0.34706306      -0.31545308      -1.27858269      -0.34748542
27
Properties=species:S:1:pos:R:3:REF_forces:R:3:DFT_forces:R:3:FOUNDATION_forces:R:3 REF_energy=0.007333963018027134 charge=0 spin=1 external_field="0.0 0.0 0.0" config_type=ORCA_DFT source_file=C_DFTprod_cutcluster_0012.out orca_step=0 DFT_energy=-18719.816884786982 FOUNDATION_energy=-18719.82421875 pbc="F F F"
O       13.12012600      13.62303000      14.05528600      -0.01377418      -0.01197976      -0.03310675       0.63564715      -2.04467195      -0.33029792       0.64942133      -2.03269219      -0.29719117
H       12.65888300      14.25070100      14.57377600      -0.02268522       0.00739210       0.01782347      -0.67914646       1.46921413       0.38954915      -0.65646124       1.46182203       0.37172568
H       13.63279800      14.00934600      13.35961100       0.02478657      -0.00654608      -0.01185392       0.23078465       0.83590442      -0.19370513       0.20599808       0.84245050      -0.18185121
O       12.77301500      13.64454800       9.54681700       0.00340642      -0.00857829      -0.00221382      -0.35665549      -1.00894271       2.94342555      -0.36006191      -1.00036442       2.94563937
H       12.42336200      13.16790900      10.41286700       0.00024099       0.00019840       0.00446153       0.66331083       0.86118541      -2.43536710       0.66306984       0.86098701      -2.43982863
H       13.41001600      14.24958800       9.96401400       0.00952331       0.00334579       0.00198482      -0.28281458       0.00195512      -0.43352155      -0.29233789      -0.00139067      -0.43550637
O       15.63394200      12.50974600       9.22832300       0.01805759       0.01644444      -0.02612563      -2.04587841      -0.77275956      -0.71386613      -2.06393600      -0.78920400      -0.68774050
H       15.71176200      13.44443700       9.13302800      -0.01140575      -0.00457100       0.00336082       0.59123118       1.22401222      -0.00759283       0.60263693       1.22858322      -0.01095365
H       14.69666200      12.41287700       8.87959100       0.00478779       0.00867026       0.00551669       1.24953674      -0.20119845       0.46491550       1.24474895      -0.20986871       0.45939881
O       11.70960900       9.93996800       9.86302900      -0.00749997      -0.01893007      -0.00729392      -0.19735856       0.42922971       0.39032825      -0.18985859       0.44815978       0.39762217
H       12.21065300       9.13608400       9.77235000       0.00995661       0.00886443      -0.00128529       0.69979216      -0.44539234      -0.22481013       0.68983555      -0.45425677      -0.22352484
H       10.85394800       9.62577000      10.15624000      -0.01233062       0.00941252       0.00170183      -0.45130649       0.04117730      -0.02770009      -0.43897587       0.03176478      -0.02940192
O       15.20216700      10.89852800      11.32443300      -0.01219318       0.00382154       0.01115039      -0.37467460       0.91742979       0.14359787      -0.36248142       0.91360825       0.13244748
H       15.21560300      11.64666400      10.69129100      -0.01952220      -0.00608432       0.01789237       0.01190493      -0.43610510      -0.36796217       0.03142713      -0.43002078      -0.38585454
H       15.73913900      11.29123700      12.00951700       0.01920568       0.00036351      -0.01374656       0.36292996      -0.40374329       0.64359689       0.34372428      -0.40410680       0.65734345
O        9.64207200      12.24220100      13.32868200      -0.00281616       0.00239383      -0.00531394       0.93321035       0.10864465      -0.64941175       0.93602651       0.10625082      -0.64409781
H        9.82481800      13.14300000      13.02881400      -0.00521249      -0.00461292      -0.00666969      -0.58884556       0.25956127       0.32858146      -0.58363307       0.26417419       0.33525115
H       10.41613600      11.86304400      12.84298700       0.01730536       0.00451308       0.00584936      -0.60442032      -0.15273691       0.67752111      -0.62172568      -0.15724999       0.67167175
O       12.00000000      12.00000000      12.00000000      -0.03078940       0.01702180       0.02932558       0.98595617      -1.24310312      -0.13482074       1.01674557      -1.26012492      -0.16414632
H       12.75857600      12.02828900      12.61943200      -0.00724976      -0.01094408      -0.00202048      -0.68636041       0.21688691      -0.16510350      -0.67911065       0.22783099      -0.16308302
H       12.06261000      11.08118100      11.63560400       0.01912811      -0.00374605      -0.00339402      -0.02623729       0.89730201      -0.27252595      -0.04536540       0.90104806      -0.26913193
O       11.09759100      13.54034700      16.02783900       0.00846435       0.01039574       0.00771692       0.36609606       1.13609133       0.80387655       0.35763171       1.12569559       0.79615963
H       10.38540300      13.07499400      15.62075100      -0.00819129       0.00005541       0.00085595      -0.82556910      -0.64714029      -0.69072363      -0.81737781      -0.64719570      -0.69157958
H       11.88868900      13.10125200      15.74436600       0.01078898      -0.00955379       0.00056687       0.40115789      -0.72500271      -0.07502294       0.39036891      -0.71544892      -0.07558981
O       15.07054900       8.68539600       9.76840600       0.01785195      -0.00714048      -0.00674451       0.22568286      -0.11202272      -1.96556974       0.20783091      -0.10488224      -1.95882523
H       14.77034200       7.91570300      10.21072100      -0.01035897       0.00365592       0.00005922      -0.32249437      -0.82638507       0.85492596      -0.31213540      -0.83004099       0.85486674
H       15.04647300       9.43784900      10.34163300       0.00052521      -0.00386207       0.01150288       0.08452065       0.62060989       1.04768302       0.08399544       0.62447196       1.03618014
27
Properties=species:S:1:pos:R:3:REF_forces:R:3:DFT_forces:R:3:FOUNDATION_forces:R:3 REF_energy=0.011951954202231718 charge=0 spin=1 external_field="0.0 0.0 0.0" config_type=ORCA_DFT source_file=C_DFTprod_cutcluster_0013.out orca_step=0 DFT_energy=-18720.609141795798 FOUNDATION_energy=-18720.62109375 pbc="F F F"
O       10.82716700      10.24066600      10.01489100       0.00832701       0.01422389      -0.00593567       0.12468720       0.93860771      -0.17212226       0.11636019       0.92438382      -0.16618659
H       11.11393400       9.50184400       9.50180600      -0.00950835      -0.00777034       0.00530813       0.80877974      -0.56185869      -0.88267829       0.81828809      -0.55408835      -0.88798642
H       10.15222500       9.80990500      10.52511400      -0.00184015      -0.00913931      -0.00427697      -1.12883953      -0.39108158       1.18922951      -1.12699938      -0.38194227       1.19350648
O       10.20296600      14.34850900      13.49831500      -0.02074582       0.00177332       0.00476796      -1.14282197      -1.24270049       0.12461351      -1.12207615      -1.24447381       0.11984555
H       10.49193300      13.57447100      12.96680400       0.00337856       0.00150486      -0.00896378      -0.09720180       0.53969141       0.34274818      -0.10058036       0.53818655       0.35171196
H        9.32244500      14.05276000      13.85806500       0.01207416       0.00407889       0.00991394       1.37730901       0.56467816      -0.51733397       1.36523485       0.56059927      -0.52724791
O       10.56887200       8.64487800      14.52045600      -0.00502365       0.00124885       0.00586849       1.03438265       0.55412723       0.42938876       1.03940630       0.55287838       0.42352027
H       11.27856900       8.07960700      14.87480100      -0.00192832      -0.00353405      -0.00676804      -0.58405559      -0.10233634      -0.31779336      -0.58212727      -0.09880229      -0.31102532
H       11.01901500       9.51899700      14.64178400       0.00851874       0.00436295       0.00351765      -0.41274349      -0.34868409      -0.40095256      -0.42126223      -0.35304704      -0.40447021
O        9.64769000      12.77856900       8.68565500       0.00167395      -0.02208558      -0.00102469      -0.94251548       0.08014916       0.07698979      -0.94418943       0.10223474       0.07801448
H        9.83191500      11.89643900       9.03366300      -0.00624444       0.00810265      -0.00794393       0.07659389      -0.00228232       0.22928303       0.08283833      -0.01038497       0.23722696
H        8.93547300      13.18548400       9.21814000      -0.00495964       0.00258607       0.00201426       0.38128162      -0.70121979      -0.29258956       0.38624126      -0.70380586      -0.29460382
O       10.74833100      15.11848200       9.11809100       0.00953702      -0.00182611       0.00485104      -0.40206446      -0.30482528      -0.21128998      -0.41160148      -0.30299917      -0.21614102
H       10.36964900      14.21897500       8.87559400       0.00880300       0.02652627      -0.00409517       1.52176475       1.26803177       0.45200938       1.51296175       1.24150550       0.45610455
H       11.64192200      15.03026900       9.48355900      -0.01205219      -0.01194193      -0.00249908      -0.53246142      -0.47215809      -0.20995111      -0.52040923      -0.46021616      -0.20745203
O        9.03571800       8.94090800      11.92517400      -0.00101277       0.00848619      -0.00513128      -0.82759467       0.86981789      -1.24288062      -0.82658190       0.86133170      -1.23774934
H        8.59262400       9.75671800      12.20537600      -0.00645700      -0.00125526      -0.00667157       0.09142792      -0.43177603       0.05297121       0.09788492      -0.43052077       0.05964278
H        9.63174800       8.72863100      12.62650400       0.01421951      -0.00741275       0.01589670       0.85156296      -0.35316064       1.28810813       0.83734345      -0.34574789       1.27221143
O       12.40730500      10.86888100      14.46062200       0.00886457      -0.00298238       0.00430863      -0.01258421       1.25047648      -0.23636086      -0.02144878       1.25345886      -0.24066949
H       12.46849700      11.50156800      15.19590100      -0.01389625      -0.00152307       0.00184614      -0.01863525      -0.41717335      -0.21094448      -0.00473900      -0.41565028      -0.21279062
H       12.38751400      11.46696900      13.65474900       0.00664288      -0.00658035       0.00201241      -0.13266739      -1.01363611       0.54550663      -0.13931027      -1.00705576       0.54349422
O       12.00000000      12.00000000      12.00000000       0.01348631       0.00999153       0.01081069      -0.48948522      -0.22353620       0.29341401      -0.50297153      -0.23352773       0.28260332
H       11.65808400      11.36362200      11.33533600      -0.00256935      -0.00487978      -0.01145873       0.44611034       0.54909568       0.10938127       0.44867969       0.55397546       0.12084000
H       12.47079100      12.73194500      11.57558900      -0.00729696      -0.00421400      -0.00522200       0.01890630      -0.29655821      -0.50109858       0.02620326      -0.29234421      -0.49587658
O       13.21718900      14.22854200      10.83874200      -0.00633189       0.00189761      -0.00802080       0.17725228       0.54832409       0.38245754       0.18358417       0.54642648       0.39047834
H       13.05889600      14.80152900      11.60339600      -0.00073223       0.00697085      -0.00571990      -0.28625040      -0.03455717      -0.07927833      -0.28551817      -0.04152802      -0.07355843
H       14.10001400      14.50504000      10.57080300       0.00507350      -0.00660905       0.01261562       0.09986222      -0.26545521      -0.24082708       0.09478872      -0.25884616      -0.25344270
27
Properties=species:S:1:pos:R:3:REF_forces:R:3:DFT_forces:R:3:FOUNDATION_forces:R:3 REF_energy=-0.00023328207316808403 charge=0 spin=1 external_field="0.0 0.0 0.0" config_type=ORCA_DFT source_file=C_DFTprod_cutcluster_0014.out orca_step=0 DFT_energy=-18719.232655157073 FOUNDATION_energy=-18719.232421875 pbc="F F F"
O       14.52844100      11.28767300      11.49652400       0.02609461      -0.00300081       0.01230031       1.00599366       2.04279797      -0.90451843       0.97989905       2.04579878      -0.91681874
H       14.69030900      12.26439300      11.33704600      -0.00640543       0.01064996      -0.00617935       0.13150283      -1.76632317       0.14863950       0.13790826      -1.77697313       0.15481885
H       13.74592200      11.37619000      12.03172300       0.00634729      -0.00012479      -0.00885317      -0.71192361      -0.30189700       0.53191778      -0.71827090      -0.30177221       0.54077095
O       13.69798600       8.34102800      10.49537700      -0.00658008      -0.00719025       0.00180322      -0.19126433       1.17153785      -1.33937222      -0.18468425       1.17872810      -1.34117544
H       13.60645600       9.07725400       9.80068800       0.00391670       0.01291375      -0.01402200       0.27163347      -1.49834092       1.25573670       0.26771677      -1.51125467       1.26975870
H       12.92297200       8.46253900      11.04664600      -0.00575466       0.00443898       0.00908513      -0.04750910      -0.02263008       0.13821146      -0.04175444      -0.02706906       0.12912633
O       11.86751600      13.53518300       8.65408000      -0.01793719       0.00803985      -0.00570484      -0.13513318       0.83600284       0.16196069      -0.11719599       0.82796299       0.16766553
H       12.14910400      12.69774600       8.32469000       0.00732347       0.00023507       0.00185470       0.34792906      -1.07275559      -0.73341592       0.34060559      -1.07299066      -0.73527062
H       11.71292300      13.32963600       9.57199300       0.00721724       0.00044074      -0.00678825      -0.20188304       0.16669224       0.62425191      -0.20910028       0.16625150       0.63104016
O       14.40083900      11.93234800      14.68838000       0.01106820      -0.00384631      -0.00692793      -2.71486511      -0.42510705       0.21280894      -2.72593331      -0.42126074       0.21973687
H       13.43703800      11.68016900      14.88514200      -0.01135456       0.00278205       0.00099464       2.07117689       0.58011198      -0.72965280       2.08253145       0.57732993      -0.73064744
H       14.80739800      11.71974900      15.52185900       0.00315601      -0.00095525       0.00863205       0.60600824      -0.09475056       0.50763752       0.60285223      -0.09379531       0.49900547
O       12.72641100      14.74534400      12.38122600      -0.00948015      -0.01272084       0.00851413       1.06881985      -0.43539800      -0.44815180       1.07830000      -0.42267716      -0.45666593
H       13.43741400      14.45434200      11.74131200       0.01150036      -0.00130030      -0.00547456      -1.01596331       0.65717021       1.37460256      -1.02746367       0.65847051       1.38007712
H       13.13528400      14.88107700      13.26240100       0.00021496      -0.00275172      -0.00279875      -0.11708136      -0.23753982      -0.95221157      -0.11729632      -0.23478810      -0.94941282
O       13.15408100      10.58611500       8.85530600       0.00790205      -0.00990874       0.00794708       0.46797048       0.42996803      -0.77415521       0.46006843       0.43987677      -0.78210229
H       13.98991700      11.05259100       8.65237100      -0.01606998      -0.00487535       0.01494556      -0.50916398      -0.44012569       0.21738689      -0.49309400      -0.43525034       0.20244133
H       12.94660800      10.88817600       9.73948000       0.01188690      -0.00425277      -0.01993929       0.12219518       0.30896255       0.60408063       0.11030828       0.31321532       0.62401992
O       10.24047200      13.47327100      14.82382900      -0.00639594      -0.02129578       0.01723296       1.96815812      -1.98221707       1.27433020       1.97455406      -1.96092129       1.25709724
H        9.89590400      12.76503300      14.25237600       0.00694308       0.01471639       0.00156031       0.02767232       0.42050848       0.20053490       0.02072924       0.40579209       0.19897459
H       10.95043700      12.96432200      15.37947400      -0.00374014       0.01071963      -0.00885396      -2.00369782       1.56720767      -1.48249953      -1.99995768       1.55648804      -1.47364557
O       12.00000000      12.00000000      12.00000000      -0.03363012      -0.00720956       0.00844367       0.30626397      -0.80243220      -0.21173252       0.33989409      -0.79522264      -0.22017619
H       11.22956400      11.53503900      11.67815200      -0.00431662      -0.00507723       0.00962545      -0.51718479      -0.50389229      -0.04139692      -0.51286817      -0.49881506      -0.05102237
H       11.72357100      12.86909900      12.23655800       0.00594745       0.01472661      -0.00596308      -0.16064521       1.47936818       0.41627238      -0.16659266       1.46464157       0.42223546
O       10.02502600      10.00522800      12.01299700       0.01808473       0.00063533      -0.01273514      -0.01667551      -1.58749002      -1.05936421      -0.03476024      -1.58812535      -1.04662907
H       10.22038700       9.87675400      12.93078300      -0.00077187       0.00420616      -0.00186269       0.17168332       0.19367417       1.03047200       0.17245519       0.18946801       1.03233469
H       10.08809000       9.06748800      11.69406600      -0.00516656       0.00000567       0.00316359      -0.22401705       1.31689734      -0.02237297      -0.21885049       1.31689167      -0.02553656
27
Properties=species:S:1:pos:R:3:REF_forces:R:3:DFT_forces:R:3:FOUNDATION_forces:R:3 REF_energy=0.03465095965657383 charge=0 spin=1 external_field="0.0 0.0 0.0" config_type=ORCA_DFT source_file=C_DFTprod_cutcluster_0015.out orca_step=0 DFT_energy=-18719.689958415343 FOUNDATION_energy=-18719.724609375 pbc="F F F"
O       12.04681600      10.35620300      14.60639800       0.02603337      -0.01788267       0.00118023       0.95805636       1.16722420       0.43452608       0.93202299       1.18510687       0.43334585
H       11.82741700      10.74541900      15.47661500       0.00501317       0.00658395      -0.01803570      -0.10558328      -0.45777518      -0.51337205      -0.11059645      -0.46435913      -0.49533635
H       12.73982300      10.98527200      14.29702400      -0.01542627       0.01529157       0.00925113      -0.63603698      -0.66750682       0.00738750      -0.62061071      -0.68279839      -0.00186363
O       10.80941100      14.85393700      10.58639700       0.02241987      -0.01325708       0.00941111      -0.03858681       0.32577396       0.53056420      -0.06100668       0.33903104       0.52115309
H       11.22396500      15.53766900      11.14889300      -0.00891965      -0.00209708       0.01138292      -0.66594457      -0.34782190      -0.29372151      -0.65702492      -0.34572482      -0.30510443
H        9.91427600      14.69279700      10.95224900      -0.01222738       0.00120888       0.00055976       0.71223918       0.29130102      -0.13291504       0.72446656       0.29009214      -0.13347480
O       11.35184700      12.68892300      12.15168100       0.00368463       0.01443885       0.01809018       0.09532618       0.69253312      -0.20696174       0.09164155       0.67809427      -0.22505192
H       11.54162700      13.40324600      11.49093900       0.01329664      -0.00935012      -0.00395843      -0.39844384      -0.75314194       0.20294819      -0.41174048      -0.74379182       0.20690662
H       12.00000000      12.00000000      12.00000000      -0.03006952      -0.00337787       0.00514100       0.48430748      -0.01507896       0.02379129       0.51437700      -0.01170109       0.01865029
O        9.33306600      10.40652500      13.94145700      -0.01264109       0.00309847      -0.01262800       0.61019574      -0.06787718      -0.52045081       0.62283683      -0.07097565      -0.50782281
H       10.30542000      10.32494200      13.89369300      -0.00330631       0.00112016      -0.00089312      -0.30134062      -0.04106283       0.47494167      -0.29803431      -0.04218299       0.47583479
H        9.14280000      10.67691800      13.03724200       0.01165998      -0.00107739       0.00838304      -0.47679651       0.11910981       0.08448054      -0.48845649       0.12018720       0.07609750
O       10.88462000      11.14638400       9.73464800       0.00624477      -0.01080196       0.00005701       1.59238540       0.07633961       1.18575600       1.58614063       0.08714157       1.18569899
H       10.38759400      11.16757100      10.57642700       0.00313612      -0.00622614      -0.00935924       0.31323367       0.14497727      -0.67010224       0.31009755       0.15120341      -0.66074300
H       11.83123000      11.31569800      10.04472800      -0.02311316       0.00764972      -0.00788294      -1.87162199      -0.28846294      -0.80107044      -1.84850883      -0.29611266      -0.79318750
O        9.50390600      13.72465900      13.88911700       0.00535486      -0.01986583       0.00676088      -0.69313141       0.51017396       1.16006939      -0.69848627       0.53003979       1.15330851
H       10.10797800      13.13480200      13.43217600      -0.00679203       0.00562222       0.00228231       0.29766209      -0.36519309       0.27240418       0.30445412      -0.37081531       0.27012187
H        9.48103400      13.51706100      14.85329200      -0.00446809       0.01646958      -0.01103649       0.23592331      -0.00655806      -1.45149336       0.24039140      -0.02302764      -1.44045687
O       13.55099800      10.83349800      11.85402300       0.01472206       0.02394407       0.00476183       0.63812811      -3.05087931      -0.32998435       0.62340605      -3.07482338      -0.33474618
H       13.13014800       9.91757000      11.98762600      -0.00391947       0.00173834      -0.02102771       0.59088059       1.94522908      -0.10521479       0.59480006       1.94349074      -0.08418708
H       14.42934100      10.53685000      11.47440400      -0.00435483      -0.02473434       0.01497994      -1.33907675       0.91300420       0.50595601      -1.33472192       0.93773854       0.49097607
O       12.62320100      14.69450700      14.08482900      -0.02796529       0.00282489       0.02186339      -0.74173365      -0.03615187       0.16485961      -0.71376836      -0.03897676       0.14299622
H       12.39093500      14.27596800      13.24899300       0.02684981       0.00382747      -0.00447956      -0.09629445      -0.29317356       0.06665513      -0.12314426      -0.29700103       0.07113469
H       13.53893300      14.91977700      14.03053300       0.01069330       0.00330404      -0.01335046       0.88653706       0.20581343      -0.09987857       0.87584376       0.20250939      -0.08652811
O       13.94196500      13.65708900      10.46880400       0.00266414      -0.00235844      -0.02317969      -1.18276174       0.71997368      -0.94580875      -1.18542588       0.72233212      -0.92262906
H       14.65713100      13.74633000      11.06105700      -0.00979893       0.01421399       0.01022661       1.41373892      -0.24818676       1.21715153       1.42353785      -0.26240075       1.20692492
H       13.82606100      14.58306000      10.19671800       0.01122923      -0.01030718       0.00150016      -0.28126143      -0.47258289      -0.26051751      -0.29249066      -0.46227571      -0.26201767
27
Properties=species:S:1:pos:R:3:REF_forces:R:3:DFT_forces:R:3:FOUNDATION_forces:R:3 REF_energy=0.0009134993815678172 charge=0 spin=1 external_field="0.0 0.0 0.0" config_type=ORCA_DFT source_file=C_DFTprod_cutcluster_0016.out orca_step=0 DFT_energy=-18719.18268025062 FOUNDATION_energy=-18719.18359375 pbc="F F F"
O       10.71303200       9.81969400      16.18013200      -0.00158015       0.01028802      -0.00487943       1.33837649       0.87868198      -2.18035550       1.33995664       0.86839396      -2.17547607
H       10.01086000       9.17677300      16.19532800      -0.00306832      -0.00888485       0.00172843      -0.29811820      -0.36379955      -0.30715244      -0.29504988      -0.35491470      -0.30888087
H       11.04139300       9.91869500      15.21498800       0.00731169      -0.00379618       0.00145509      -1.04389275      -0.46058761       2.42665198      -1.05120444      -0.45679143       2.42519689
O       12.02642200      14.69544000      16.45427400       0.00504071       0.01368859      -0.00153413      -0.00166469      -1.85160754      -0.04991468      -0.00670540      -1.86529613      -0.04838055
H       11.74358300      14.24689300      17.28072100      -0.00499917      -0.01256403      -0.00454631       0.28446775       0.44867975      -0.85619089       0.28946692       0.46124378      -0.85164458
H       12.38726400      13.95029700      15.84819100       0.00195544       0.00866918       0.01814638      -0.53942026       1.76315264       1.43611513      -0.54137570       1.75448346       1.41796875
O        9.87110200      11.95277800      13.26177900      -0.01756288      -0.01165581       0.00449755      -0.09178263       0.13563624      -0.53113035      -0.07421975       0.14729205      -0.53562790
H        8.98366600      12.00337500      12.87673100       0.00004644      -0.00997381      -0.00056512       0.18365052      -0.31917034      -0.18640504       0.18360408      -0.30919653      -0.18583992
H        9.69990600      12.19398300      14.16528900       0.00811729       0.01644358       0.00183059       0.24413279       0.22556192       0.82578034       0.23601550       0.20911834       0.82394975
O       12.47863200      16.03852100       9.83545100      -0.00200451      -0.00760315       0.01264545      -1.10045183      -1.03836189      -2.04182795      -1.09844732      -1.03075874      -2.05447340
H       12.04121000      15.61756100       9.02698500      -0.00131105       0.00316783      -0.01185342       1.20502318       0.71271952       1.56312589       1.20633423       0.70955169       1.57497931
H       11.74251700      16.56730900      10.15183000      -0.00018505       0.00190249       0.00048090      -0.17657932       0.31979132       0.55775500      -0.17639427       0.31788883       0.55727410
O        9.86688500      16.85757400      11.52077100      -0.00712035       0.00092838      -0.00555969      -0.92256711      -1.71495905      -0.65675128      -0.91544676      -1.71588743      -0.65119159
H       10.06416700      16.99661100      12.44827600      -0.00068752      -0.00239253      -0.00350781       0.03125757      -0.14197838       0.24317722       0.03194509      -0.13958585       0.24668503
H        9.41736400      15.95780400      11.45600900       0.01016054       0.00784014       0.00462676       0.97798071       1.85855780       0.35234899       0.96782017       1.85071766       0.34772223
O        7.89843100      10.37643900      12.26019200       0.00536364      -0.00451727      -0.00420981       0.07602624      -1.06626279      -1.56460767       0.07066260      -1.06174552      -1.56039786
H        8.53136500       9.69529500      12.56015600       0.00031010       0.00893389       0.00434151      -0.29891642       0.54671412       0.00570389      -0.29922652       0.53778023       0.00136238
H        7.72942300      10.10222400      11.31886500      -0.01097196       0.00214480       0.00312719      -0.01873470       0.48159363       1.39478752      -0.00776274       0.47944883       1.39166033
O       10.58873900       9.86407000      10.30964700       0.00869589      -0.00946234      -0.02046206       1.00344466      -1.09309338      -0.35994321       0.99474877      -1.08363104      -0.33948115
H        9.90410300       9.29830300       9.95958500      -0.00228018       0.00230250       0.00408697      -0.17556990      -0.20178929      -0.21044028      -0.17328972      -0.20409179      -0.21452725
H       10.15740400      10.62393100      10.64071000       0.00389009       0.00520179       0.00745588      -0.77593148       1.31054959       0.61615556      -0.77982157       1.30534780       0.60869968
O       12.90753100      11.64967500      11.94339400      -0.00440257       0.00280165      -0.01042332      -0.47667145      -0.75733191      -0.68634452      -0.47226888      -0.76013356      -0.67592120
H       12.00000000      12.00000000      12.00000000       0.00096824       0.00619276       0.00812704       0.35256620      -0.34183971      -0.08665534       0.35159796      -0.34803247      -0.09478238
H       12.85166300      10.87844600      11.31979500       0.00605782      -0.00368678       0.01259944      -0.05023458       1.11104668       0.91650573      -0.05629240       1.11473346       0.90390629
O       13.34466600      13.44178200      14.63430000      -0.01825388      -0.02716843       0.01009813      -0.19797768      -0.45477728      -0.84043285      -0.17972380      -0.42760885      -0.85053098
H       12.90438800      13.03745400      13.88042500      -0.00946617       0.00189058      -0.03133133      -0.47604272       0.12239429      -0.22015618      -0.46657655       0.12050371      -0.18882485
H       14.18311600      13.00472400      14.54275100       0.02597555       0.00930918       0.00362536       0.94762966      -0.10952067       0.44020077       0.92165411      -0.11882985       0.43657541
27
Properties=species:S:1:pos:R:3:REF_forces:R:3:DFT_forces:R:3:FOUNDATION_forces:R:3 REF_energy=0.023595291982928757 charge=0 spin=1 external_field="0.0 0.0 0.0" config_type=ORCA_DFT source_file=C_DFTprod_cutcluster_0017.out orca_step=0 DFT_energy=-18719.962732833017 FOUNDATION_energy=-18719.986328125 pbc="F F F"
O       11.90496500      14.27532400       8.95477000      -0.01079879       0.00535042       0.00728531      -0.38054849      -0.07969598       0.84806944      -0.36974970      -0.08504640       0.84078413
H       12.63308300      14.16126500       8.35177400       0.00720828      -0.00314669       0.01665424       0.40698268      -0.10666911      -0.17345033       0.39977440      -0.10352242      -0.19010457
H       12.18767900      13.88876700       9.80809000       0.00361966       0.00549136      -0.01949918       0.13482079       0.19414067      -0.75040161       0.13120113       0.18864931      -0.73090243
O       12.00422000      12.81856700      11.46647300       0.00356323       0.01875589       0.02015933       1.38809330      -0.33517119       0.37009984       1.38453007      -0.35392708       0.34994051
H       11.14494500      12.87183700      11.11186800       0.00559802      -0.01870944      -0.01937926      -1.76690059       0.20284278      -0.70301628      -1.77249861       0.22155222      -0.68363702
H       12.00000000      12.00000000      12.00000000      -0.00151271       0.00077342       0.00603112       0.19986775       0.26667129       0.05448862       0.20138046       0.26589787       0.04845750
O       15.73693000      13.45710400      11.99045700      -0.01788349      -0.01240135       0.02284799       0.22417723      -0.40415878      -0.37551849       0.24206072      -0.39175743      -0.39836648
H       15.26991500      12.63953400      11.70352700      -0.00490271       0.00315861      -0.00204290       0.40655531       0.67670731       0.08116706       0.41145802       0.67354870       0.08320996
H       15.11470300      13.87580700      12.57731700       0.00739931       0.01473237      -0.01663484      -0.35891117       0.42625160       0.49767218      -0.36631048       0.41151923       0.51430702
O       11.05525700       9.34667800       9.90422400       0.01318462       0.00580327      -0.00046053       0.98533685      -0.82273801      -0.70247825       0.97215223      -0.82854128      -0.70201772
H       11.99348600       9.54262600       9.67618600      -0.01741924      -0.00357308      -0.00254470      -0.88577642       0.03477968       0.37658221      -0.86835718       0.03835276       0.37912691
H       10.91252600       8.49458300       9.43401400       0.00153111       0.00238014       0.01093410      -0.06566428       0.79154260       0.47729366      -0.06719539       0.78916246       0.46635956
O       12.05279500      11.19431300      13.55495100      -0.02080559       0.01523038      -0.00542295       0.33515114      -1.09658257      -1.11149359       0.35595673      -1.11181295      -1.10607064
H       12.92390600      11.11582200      13.92377900       0.00045487      -0.01638434       0.01433671       0.76629051      -0.23248354       0.23886836       0.76583564      -0.21609920       0.22453165
H       11.58181100      11.68875700      14.18832000       0.02379062       0.00065980      -0.00678624      -1.05177400       1.04680750       1.15978168      -1.07556462       1.04614770       1.16656792
O       13.27845600      14.73745100      13.04398400      -0.01447696      -0.02107244      -0.02628050       0.84901314       1.09447021      -0.12505163       0.86349010       1.11554265      -0.09877113
H       13.67492500      15.42837800      12.46329500       0.00899000       0.00056023       0.01073535      -0.57727914      -0.80390077       0.59059365      -0.58626914      -0.80446100       0.57985830
H       12.94390900      14.05517100      12.45373000       0.00088344       0.01622734       0.00477213      -0.39864968      -0.09764732      -0.41115522      -0.39953312      -0.11387466      -0.41592735
O       14.90833200      11.09708600      11.28130700      -0.00065816       0.01367715      -0.02428857       1.59512126      -1.01805624      -1.17211763       1.59577942      -1.03173339      -1.14782906
H       14.86505900      10.66798800      12.13480300       0.02173820      -0.01130797      -0.00478206      -0.11309919      -0.42018817       0.37786879      -0.13483739      -0.40888020       0.38265085
H       15.81659700      10.82585700      10.93999000      -0.01677399      -0.01409826       0.02066928      -1.72028880       0.52894821       0.57114994      -1.70351481       0.54304647       0.55048066
O       10.48830800       8.40892200      12.64570300      -0.00650735       0.00511359       0.03157453       0.15674834      -1.27611614       1.72228269       0.16325569      -1.28122973       1.69070816
H       10.74167100       8.78464600      11.82237600       0.00304284       0.00329554      -0.02852267      -0.24709640       0.94239885      -1.46117264      -0.25013924       0.93910331      -1.43264997
H        9.67736000       8.75577800      13.01138600      -0.00065731      -0.00550916      -0.00887407      -0.13311245       0.41884960      -0.44441779      -0.13245514       0.42435876      -0.43554372
O       13.18755200       8.32136200      13.16034600      -0.01237642       0.00766075       0.00549271       0.21385666      -0.09584544       0.40534087       0.22623308      -0.10350619       0.39984816
H       12.29801600       8.71712100      13.19038900       0.01660879      -0.02392129      -0.00386747       0.08431090      -0.39223791       0.06413473       0.06770211      -0.36831662       0.06800220
H       13.12232900       7.51429000      13.70150000       0.00715984       0.01125400      -0.00210717      -0.04722520       0.55708091      -0.40512037      -0.05438504       0.54582691      -0.40301320
27
Properties=species:S:1:pos:R:3:REF_forces:R:3:DFT_forces:R:3:FOUNDATION_forces:R:3 REF_energy=0.007495859186747111 charge=0 spin=1 external_field="0.0 0.0 0.0" config_type=ORCA_DFT source_file=C_DFTprod_cutcluster_0018.out orca_step=0 DFT_energy=-18719.504222890813 FOUNDATION_energy=-18719.51171875 pbc="F F F"
O        9.66137800      10.01767500      13.22336600      -0.00766335      -0.00328045       0.00621520       1.29452838      -2.03326540       1.45645569       1.30219173      -2.02998495       1.45024049
H       10.55441200      10.26791100      13.53911200      -0.01785943       0.00241177      -0.02291564      -0.95507023       0.29202859      -0.61346547      -0.93721080       0.28961682      -0.59054983
H        9.28543500      10.72322300      12.75469600       0.02293781      -0.00044697       0.01760914      -0.52467653       1.88599378      -0.71221558      -0.54761434       1.88644075      -0.72982472
O       11.87947000       9.16750900      11.49010700      -0.00517751       0.00138345       0.01781839       1.22055136       0.24324268       0.29088306       1.22572887       0.24185923       0.27306467
H       12.41658800       9.15010000      12.31442900       0.00204004      -0.00524491      -0.01567484      -0.54668491      -0.06674075      -0.59501554      -0.54872495      -0.06149584      -0.57934070
H       11.22531200       8.48051100      11.57730700      -0.00280859       0.00279528      -0.00856827      -0.44870191      -0.23336434       0.17442720      -0.44589332      -0.23615962       0.18299547
O       12.91468000      10.17111600      14.03532600      -0.01713005       0.00295854      -0.00769296      -0.23518227      -1.21089995       0.78505823      -0.21805222      -1.21385849       0.79275119
H       13.88952300      10.20365900      14.01613600       0.01214459       0.00665084      -0.00494239      -0.62385396      -0.22713477       0.34526524      -0.63599855      -0.23378561       0.35020763
H       12.61341300       9.49225500      14.70657100       0.00300512      -0.00319002       0.01197686       0.97245130       1.19657757      -0.97131024       0.96944618       1.19976759      -0.98328710
O       12.00000000      12.00000000      12.00000000       0.00898726       0.00947084      -0.03522776       0.20340688      -0.48084996      -0.10474361       0.19441962      -0.49032080      -0.06951585
H       12.11445600      11.04313900      11.77290600      -0.02710376      -0.02181372       0.00445950      -0.18789747       1.06602481       0.53973162      -0.16079371       1.08783853       0.53527212
H       12.44462800      12.19383900      12.84436300       0.02260289       0.02381813       0.03270467      -0.33869510      -0.44064752      -0.04960574      -0.36129799      -0.46446565      -0.08231041
O        9.21355800      13.44098700      12.43303100      -0.00346264      -0.01614241      -0.01617974       0.16570807      -0.29437421      -0.13697347       0.16917071      -0.27823180      -0.12079373
H        9.86326000      12.79018900      12.05456800       0.00161069      -0.00163052       0.00557904      -0.86302627       1.33280244      -0.26276512      -0.86463696       1.33443296      -0.26834416
H        8.76961300      13.99675400      11.75397700      -0.00062439       0.01216503       0.01042934       0.95248154      -1.09647397       0.27907975       0.95310593      -1.10863900       0.26865041
O       13.22655200      13.58023000      14.00441200      -0.00098497      -0.00759061       0.00504578      -0.91438663       1.68771271      -1.29975378      -0.91340166       1.69530332      -1.30479956
H       14.14642400      13.78986000      14.09125400      -0.00243677       0.00115392      -0.01635858       1.15897487      -0.31508481       0.46698097       1.16141164      -0.31623873       0.48333955
H       12.97309600      14.37405100      13.44850600      -0.00864870      -0.01156839      -0.00411768      -0.28308532      -1.30700620       0.94011967      -0.27443662      -1.29543781       0.94423735
O       10.08055900      11.19905800       9.99162300      -0.01932647      -0.00515199      -0.00234483      -1.96838417      -1.09368921       1.08809032      -1.94905770      -1.08853722       1.09043515
H       10.89665300      10.71560700      10.07490300       0.02292226      -0.00979676       0.00473212       0.58968852      -0.44634678       0.00557605       0.56676626      -0.43655002       0.00084393
H        9.45147400      10.62559000      10.53960500       0.01639518       0.01258939       0.01249710       1.26175627       1.24102336      -1.24993989       1.24536109       1.22843397      -1.26243699
O       11.18366400      13.95296700       9.89551100       0.01043443      -0.00684768       0.00574861       0.11024521       0.88116705       0.33097927       0.09981078       0.88801473       0.32523066
H       11.36409900      14.32972500      10.78031100      -0.00623198      -0.01646452      -0.00298939      -0.12336915      -0.71720378      -0.77418313      -0.11713717      -0.70073926      -0.77119374
H       11.38116000      13.01163700       9.93734500       0.00454350       0.02816157      -0.00910379      -0.10509035       0.13717829       0.39069335      -0.10963385       0.10901672       0.39979714
O       14.72614700      12.97779700      11.31498600      -0.00173956       0.01217909       0.00519084      -1.36075717       0.84114767       1.49220370      -1.35901761       0.82896858       1.48701286
H       13.88025200      12.83158300      11.85283500      -0.01723409      -0.00086434       0.01089940       1.52114224       0.07267332      -1.45478299       1.53837633       0.07353766      -1.46568239
H       14.87723300      13.94017500      11.44338100       0.01080928      -0.00570579      -0.00478973       0.02792686      -0.91449066      -0.36078956       0.01711758      -0.90878487      -0.35599983
27
Properties=species:S:1:pos:R:3:REF_forces:R:3:DFT_forces:R:3:FOUNDATION_forces:R:3 REF_energy=0.03646747706079623 charge=0 spin=1 external_field="0.0 0.0 0.0" config_type=ORCA_DFT source_file=C_DFTprod_cutcluster_0019.out orca_step=0 DFT_energy=-18719.73892314794 FOUNDATION_energy=-18719.775390625 pbc="F F F"
O       12.00000000      12.00000000      12.00000000       0.01247014       0.01617439      -0.01884817       1.76169492       0.54036648      -0.79264741       1.74922478       0.52419209      -0.77379924
H       11.57320000      12.73250800      11.55972900      -0.02022912      -0.00501085      -0.01339968      -0.48798462      -0.01090266      -0.07129582      -0.46775550      -0.00589181      -0.05789614
H       11.35180100      11.49694100      12.45723300      -0.01899481      -0.01273175       0.01891185      -1.18319595      -0.77291985       0.49098237      -1.16420114      -0.76018810       0.47207052
O       12.41493200      13.75364700      14.05861500       0.01508564       0.00704693      -0.01697462       0.02707963       0.20198151      -0.44949397       0.01199399       0.19493458      -0.43251935
H       12.73315600      13.20225900      13.32175400       0.00187485      -0.00138747       0.01397519       0.12268385      -0.40819176       0.45469798       0.12080900      -0.40680429       0.44072279
H       11.75306000      14.25357700      13.56825500      -0.00988043       0.00713018       0.00670617      -0.23811754       0.31402407       0.30825951      -0.22823711       0.30689389       0.30155334
O       12.91699100       7.81236100      12.16204200      -0.02809288      -0.00420517       0.01614229      -1.10977866      -0.78579295      -1.61410876      -1.08168578      -0.78158778      -1.63025105
H       12.43750000       8.32678900      12.79975500      -0.00060206       0.00299829       0.00888179      -0.11288897       0.46567449       0.67667959      -0.11228691       0.46267620       0.66779780
H       12.20632000       7.56512700      11.50805200       0.00874195       0.00729914      -0.01758777       1.18402991       0.25613265       0.82974226       1.17528796       0.24883351       0.84733003
O        9.44944200      12.75955600       9.47851000       0.01476339       0.02753449      -0.00004272       0.69449965       3.14147497       0.45722728       0.67973626       3.11394048       0.45727000
H        9.34808200      13.60469500       8.94839000      -0.01309842       0.00052398      -0.00146351      -0.14834793      -1.77417917       0.18967014      -0.13524951      -1.77470315       0.19113365
H        9.84824300      13.23455000      10.27493500       0.00377018      -0.03754228      -0.01535989      -0.68795722      -1.35819465      -0.86596365      -0.69172740      -1.32065237      -0.85060376
O       10.09927600      14.30946600      11.76217600      -0.00501913       0.01505177       0.00409904       0.43444952       0.69696616      -0.18171360       0.43946865       0.68191439      -0.18581264
H        9.18018900      14.40563800      12.08236100       0.00728118       0.00251786      -0.00128962       0.77401894       0.42474679      -0.29967202       0.76673776       0.42222893      -0.29838240
H       10.49184300      15.16375600      11.45018500       0.00621278      -0.00068356       0.01069716      -1.08507781      -0.86318429       0.59595409      -1.09129059      -0.86250073       0.58525693
O        9.84228800       9.95596300      12.61552100      -0.00334197      -0.00907419      -0.00512820      -0.30162668       1.10823836      -0.48901712      -0.29828471       1.11731255      -0.48388892
H       10.20413200       9.26272400      13.13716300      -0.00030673       0.00880249       0.00940619       0.39531758      -0.97696559       0.68816821       0.39562431      -0.98576808       0.67876202
H        9.34158100      10.49316300      13.24167800       0.00687568      -0.01427992       0.01153269      -0.08396874      -0.00975991      -0.01705022      -0.09084442       0.00452001      -0.02858291
O       10.35715700      12.52717200      15.58334900       0.01132313      -0.00124338      -0.00625231       0.26737217      -1.33472064       0.92123852       0.25604904      -1.33347726       0.92749083
H       11.13476900      12.86906600      15.09912100      -0.00645545      -0.01529022       0.00472437       0.11309996      -0.21765639       0.34040843       0.11955541      -0.20236617       0.33568406
H       10.67402300      11.83778600      16.23903800      -0.00557004       0.00889192       0.00521983      -0.35667770       1.46104465      -1.33060204      -0.35110766       1.45215273      -1.33582187
O       14.44824700      10.21026200      12.25647200       0.01826513      -0.01821477       0.01322272      -1.45558846       0.54511171      -1.50389800      -1.47385359       0.56332648      -1.51712072
H       14.05394900      11.04622100      11.87352300      -0.01405408       0.00929757      -0.00147814       0.61260281      -1.31996600       0.74465185       0.62665689      -1.32926357       0.74612999
H       13.93612500       9.50760400      11.76477900       0.01451659       0.01395768      -0.01901012       0.89076590       0.77983493       0.84439642       0.87624931       0.76587725       0.86340654
O        9.46337400       9.86836700       9.53845600      -0.01186863       0.00331676       0.00400529       0.02086599      -1.44784486       0.38599507       0.03273462      -1.45116162       0.38198978
H        9.72649200       9.91744000      10.46448100       0.00300345      -0.00782967      -0.00936261      -0.10727780       0.11462426      -0.04427651      -0.11028125       0.12245393      -0.03491390
H        9.49663500      10.75052300       9.21202800       0.01333008      -0.00305058      -0.00132714       0.06000719       1.23005770      -0.26833264       0.04667711       1.23310828      -0.26700550
27
Properties=species:S:1:pos:R:3:REF_forces:R:3:DFT_forces:R:3:FOUNDATION_forces:R:3 REF_energy=0.0029182238758949097 charge=0 spin=1 external_field="0.0 0.0 0.0" config_type=ORCA_DFT source_file=C_DFTprod_cutcluster_0020.out orca_step=0 DFT_energy=-18719.516613026124 FOUNDATION_energy=-18719.51953125 pbc="F F F"
O       11.47132300       9.49435400      12.55492800       0.00081237      -0.01616421       0.02042687      -0.38104538      -0.46250781       1.83511782      -0.38185775      -0.44634360       1.81469095
H       11.70271000       9.70733300      11.67403500      -0.00458397       0.00223680      -0.00668023       0.29761015       0.36116366      -1.46515117       0.30219412       0.35892686      -1.45847094
H       10.68230800       8.94436800      12.50386700       0.00391489       0.00300731      -0.00994418       0.02470398       0.13681484      -0.17923696       0.02078909       0.13380753      -0.16929278
O       12.28582300      10.44940200      15.63121500      -0.01130006      -0.00364057      -0.00923649       0.65971437      -1.28945795      -0.43640870       0.67101443      -1.28581738      -0.42717221
H       12.04332600       9.85760400      14.85307600       0.01228838       0.00280247       0.00862412       0.84280686       0.98548756       1.43285446       0.83051848       0.98268509       1.42423034
H       13.08887400      10.07673200      16.09823500      -0.00085274      -0.00121752      -0.00191952      -1.52126066       0.39094814      -1.17583514      -1.52040792       0.39216566      -1.17391562
O       11.31276400      14.68895500      14.73706900      -0.00396340      -0.01335849       0.02106495      -0.43596189      -0.90300919       1.16933961      -0.43199849      -0.88965070       1.14827466
H       11.54571100      13.85114500      15.20869700       0.00627296       0.01501718      -0.00483407      -0.36077229       0.95160654      -0.61572768      -0.36704525       0.93658936      -0.61089361
H       10.35223600      14.80908800      14.90684000       0.00156973       0.00640547      -0.00125583       0.89809046      -0.26279417      -0.25721817       0.89652073      -0.26919964      -0.25596234
O       12.16892500      11.90346600      11.04079500      -0.01145039      -0.01767465       0.01020644      -0.08503220      -0.40103787       0.46799717      -0.07358181      -0.38336322       0.45779073
H       12.00000000      12.00000000      12.00000000      -0.00823944       0.01423071      -0.00016289       0.09714153       0.01758676      -0.71215825       0.10538097       0.00335605      -0.71199536
H       11.78542300      12.67491500      10.62134500       0.01556680       0.02063434      -0.00585643       0.09056059       0.27005625       0.23791412       0.07499379       0.24942191       0.24377055
O        8.64355500      10.50202700      11.07508200       0.00970539       0.02128456      -0.00161978       0.73638138       1.07247827       0.50355337       0.72667599       1.05119371       0.50517315
H        9.03987400      11.37004500      10.85673200      -0.00743826      -0.02393076       0.00180919      -0.07051914      -0.46778166       0.33861477      -0.06308088      -0.44385090       0.33680558
H        8.21847800      10.27786500      10.26315500       0.00084800      -0.00721505       0.00349701      -0.60660910      -0.56776955      -0.81335872      -0.60745710      -0.56055450      -0.81685573
O       11.46344100      15.39616900      12.17280400      -0.01218444      -0.00486291      -0.01068952       1.03600866       0.37200832       0.55760161       1.04819310       0.37687123       0.56829113
H       11.50280500      14.90143000      13.01748800       0.01730762       0.00549161      -0.00008336      -0.01075451       0.43866875      -0.15275938      -0.02806213       0.43317714      -0.15267602
H       10.80959900      14.94840700      11.67244700      -0.01198467       0.00468534      -0.00170462      -0.98786702      -0.61202580      -0.60789214      -0.97588235      -0.61671114      -0.60618752
O        9.57682800      13.52297600      10.85461900      -0.01566408      -0.02766735       0.00901778      -1.00778381       0.68035030      -1.38873021      -0.99211973       0.70801765      -1.39774799
H        8.69516700      13.93849500      10.77948100       0.00287080       0.01168420      -0.00261403       0.05731550      -0.34603349       1.00415408       0.05444470      -0.35771769       1.00676811
H        9.84202700      13.79112700       9.95880400       0.01862377       0.01100216      -0.00077255       0.72303170      -0.38763451       0.09642419       0.70440793      -0.39863667       0.09719674
O       11.25361300       9.82528900       8.74502600       0.00569244       0.01467137      -0.01191991      -1.35671334      -0.20447476      -1.40652590      -1.36240578      -0.21914613      -1.39460599
H       11.59022100      10.37194200       9.42737600      -0.00987795      -0.01536265       0.00009543       0.78696367       0.92841133       1.28389877       0.79684162       0.94377398       1.28380334
H       10.51522800      10.36192000       8.38833500      -0.00416733      -0.00572088       0.00390921       0.63960068      -0.64267006       0.18194608       0.64376801      -0.63694918       0.17803687
O        9.17933600      12.83356000      13.65304700       0.00719439       0.01355477       0.04700408       0.83637678       2.25962730      -0.79742565       0.82918239       2.24607253      -0.84442973
H        9.39811400      12.44995300      12.81756500       0.01233753      -0.00339394      -0.03010246       0.59373328       0.23611661      -1.26429817       0.58139575       0.23951055      -1.23419571
H        8.83559900      12.07942100      14.02740400      -0.01329871      -0.00649969      -0.02625949      -1.49572035      -2.55412785       2.16331022      -1.48242164      -2.54762816       2.18956971
27
Properties=species:S:1:pos:R:3:REF_forces:R:3:DFT_forces:R:3:FOUNDATION_forces:R:3 REF_energy=0.01823291963955853 charge=0 spin=1 external_field="0.0 0.0 0.0" config_type=ORCA_DFT source_file=C_DFTprod_cutcluster_0021.out orca_step=0 DFT_energy=-18719.60872020536 FOUNDATION_energy=-18719.626953125 pbc="F F F"
O       11.91727200      12.68874900      12.69882100       0.01335422      -0.03781918      -0.00529689       0.12760077      -0.50872067      -1.00350529       0.11424655      -0.47090149      -0.99820840
H       12.41845400      12.42426000      13.46623800      -0.00749318       0.00327294      -0.01271404       0.42277079      -0.38577966       0.45270877       0.43026397      -0.38905260       0.46542281
H       12.00000000      12.00000000      12.00000000      -0.00906133       0.00718025       0.01246176       0.05886315       0.59636382       0.74810860       0.06792448       0.58918357       0.73564684
O       11.89619700      15.94964000      10.87864800      -0.01343324      -0.01331694      -0.00141608      -0.07864455      -0.11790849      -0.11164122      -0.06521131      -0.10459155      -0.11022514
H       11.32684700      15.43388500      11.48455400       0.01173059      -0.00153668       0.00177322       0.03141996       0.33014016      -0.49173899       0.01968937       0.33167684      -0.49351221
H       11.72124100      15.64350500       9.97580300       0.00340667       0.01174407      -0.00433153      -0.03389979      -0.02512873       0.58462411      -0.03730646      -0.03687280       0.58895564
O        9.65311900      12.40003100      10.22236800      -0.01574402       0.00773246      -0.00590605      -1.38082247      -2.09231274      -0.88844985      -1.36507845      -2.10004520      -0.88254380
H       10.21801300      11.66527500      10.53440000       0.00750932       0.00845913       0.02604540       0.16492209       0.53634034       0.06385428       0.15741277       0.52788121       0.03780888
H        8.92040000      11.83439200       9.81562800       0.00889659      -0.00594280       0.00645613       1.20534086       1.43901338       0.49628203       1.19644427       1.44495618       0.48982590
O       14.97941800      13.80990100      10.03043600      -0.01544909       0.01250892       0.00416429       0.15414058       0.20685046      -0.26393204       0.16958967       0.19434154      -0.26809633
H       15.91915600      13.97055700      10.01587600       0.01055732      -0.00867202      -0.00957234       0.55625322       0.76031033      -0.34401507       0.54569590       0.76898235      -0.33444273
H       15.01329700      12.98197900      10.48566600      -0.00242320      -0.00265233       0.01124086      -0.70263246      -0.98958616       0.58559831      -0.70020926      -0.98693383       0.57435745
O       10.11651700      14.49961300      12.61885900       0.01510178       0.04135541       0.01195038      -0.47620989       0.57827441       0.10175712      -0.49131167       0.53691900       0.08980674
H       10.84224300      13.83767800      12.73181300      -0.01056717       0.02694392      -0.01603820      -0.65345142       0.05015117       0.41149584      -0.64288425       0.02320725       0.42753404
H        9.54816600      14.59738800      13.40268000      -0.00908981      -0.02481817      -0.01667908       0.74122848      -0.28225969      -0.49989870       0.75031829      -0.25744152      -0.48321962
O       12.57568200      11.59757300      15.37717000       0.00187887      -0.00634118       0.00346146      -1.45929121       1.00404934      -0.62076761      -1.46117008       1.01039052      -0.62422907
H       11.59337800      11.62331500      15.26801500       0.00367499      -0.00859277      -0.00509723       0.24738591       1.06286831       0.04825210       0.24371092       1.07146108       0.05334933
H       12.55337700      10.68810300      15.57863900      -0.00901933       0.00788706       0.00555933       1.10747223      -2.06095583       0.59906847       1.11649156      -2.06884289       0.59350914
O        9.74776600      12.27661900      15.42767100       0.01853645      -0.00188246       0.01935495       1.18253446       0.94771245       2.50889386       1.16399801       0.94959491       2.48953891
H        9.59445800      12.30528800      14.49625700       0.00472383      -0.00203483      -0.00919225      -0.09954309       0.49142907      -1.57402017      -0.10426692       0.49346390      -1.56482792
H       10.18507800      13.10930800      15.78193900      -0.01047244       0.00160440       0.00124370      -1.01004335      -1.46357004      -1.17023970      -0.99957091      -1.46517444      -1.17148340
O       12.01525000      10.64451100      10.75186800       0.01024933      -0.01004282      -0.01178196       1.07578368      -2.83269039       1.19405243       1.06553435      -2.82264757       1.20583439
H       12.10965300      10.60983600       9.79835400       0.00154294      -0.00429128      -0.00188198       0.17590718       0.04478785      -0.28985041       0.17436424       0.04907913      -0.28796843
H       12.40417000       9.74053700      11.09465000      -0.00316108       0.00519700       0.00378431      -1.24569762       2.72053809      -1.04625605      -1.24253654       2.71534109      -1.05004036
O        8.88794600      11.72595800      12.72774300       0.00859364      -0.00809599      -0.01385785      -0.92094109      -0.65257652       1.10047137      -0.92953473      -0.64448053       1.11432922
H        8.89024400      12.22754600      11.90397000      -0.00481326       0.01064842       0.01575996       0.04274207       0.46673306      -0.15082385       0.04755533       0.45608464      -0.16658381
H        7.96031200      11.59916900      13.01418800      -0.00903000      -0.00849510      -0.00948967       0.76681147       0.17592662      -0.44002835       0.77584147       0.18442172      -0.43053868
27
Properties=species:S:1:pos:R:3:REF_forces:R:3:DFT_forces:R:3:FOUNDATION_forces:R:3 REF_energy=-0.003954000807425473 charge=0 spin=1 external_field="0.0 0.0 0.0" config_type=ORCA_DFT source_file=C_DFTprod_cutcluster_0022.out orca_step=0 DFT_energy=-18719.523485250807 FOUNDATION_energy=-18719.51953125 pbc="F F F"
O       12.42945200      11.69412700      11.20018300       0.01455981       0.00894996       0.00798667       0.49884686      -0.14343656      -0.44116395       0.48428705      -0.15238652      -0.44915062
H       12.00000000      12.00000000      12.00000000       0.02864524      -0.00274339      -0.00644445      -0.44697351      -0.07099953       0.47033415      -0.47561875      -0.06825614       0.47677860
H       13.24252100      12.22113000      11.19746500      -0.01873905       0.01289194       0.00817225      -0.11790658      -0.09294487      -0.02603602      -0.09916753      -0.10583681      -0.03420827
O       12.62330400      14.73096600      12.21733000       0.00553879      -0.00939377       0.00172279       1.85964522      -1.08369358      -1.42398312       1.85410643      -1.07429981      -1.42570591
H       13.33516400      14.25144800      11.66412100      -0.02041251      -0.00952983       0.01372129      -1.49012763       1.64435851       1.37830788      -1.46971512       1.65388834       1.36458659
H       12.19937400      13.96393500      12.60531400      -0.00022428       0.00518365      -0.02228223      -0.65723788       0.14370365       0.38492878      -0.65701360       0.13852000       0.40721101
O       10.98658700      12.76818900      13.46676600      -0.00080395       0.02154357      -0.01604688      -0.04817260      -0.30905213      -0.91994464      -0.04736865      -0.33059570      -0.90389776
H       10.10471300      12.42053000      13.34331700      -0.00088842       0.00415599      -0.00327958      -0.35620014      -0.09604974      -0.21874377      -0.35531172      -0.10020573      -0.21546419
H       11.04324800      12.93782900      14.39023200       0.01206993      -0.01106219       0.00058653       0.32281833       0.23673974       1.25877919       0.31074840       0.24780193       1.25819266
O       15.48974500      13.59753800      13.83388000       0.00986999       0.01782160       0.00317982      -0.09285385       0.35680132      -0.67876234      -0.10272384       0.33897972      -0.68194216
H       15.11074600      14.35887900      13.33771800      -0.00152701       0.00642694       0.00487977       0.05745393      -1.01782762       0.53849137       0.05898094      -1.02425456       0.53361160
H       15.00866700      12.78966500      13.57575100      -0.00253302      -0.03566814      -0.00854029      -0.08644651       0.62634777       0.33337106      -0.08391349       0.66201591       0.34191135
O       14.56795000      10.69834700      14.59913000      -0.00565492       0.00298941       0.02137960      -1.65337645       1.11257005       1.49285496      -1.64772153       1.10958064       1.47147536
H       15.43100000      10.64784400      14.25796700      -0.00788563      -0.00392809      -0.00744944       1.33018989      -0.61503615      -0.98402291       1.33807552      -0.61110806      -0.97657347
H       13.90302900      10.19782700      14.12314400       0.01506539       0.00667380      -0.01089926       0.35238715      -0.50813235      -0.66917212       0.33732176      -0.51480615      -0.65827286
O       13.29902800       8.82754600      12.62887200       0.00041851       0.00871869      -0.01023099       0.51193007      -0.30374465       0.60034415       0.51151156      -0.31246334       0.61057514
H       14.22858600       8.56283600      12.52545600      -0.00191073      -0.00895348       0.00978421      -0.52858131       0.12776075      -0.17888020      -0.52667058       0.13671423      -0.18866441
H       13.08365900       9.36640800      11.86892700      -0.00115951      -0.01355483      -0.00082279       0.00352483       0.34299470      -0.45245907       0.00468434       0.35654953      -0.45163628
O       15.21320100      10.71602800       9.85936200      -0.00708237      -0.02734202       0.00529736       2.48940763      -0.09730279      -0.60055894       2.49649000      -0.06996077      -0.60585630
H       16.11668500      11.10147900       9.56618000      -0.00130447       0.01180726      -0.00869142      -2.78592809      -0.54986161       0.83386261      -2.78462362      -0.56166887       0.84255403
H       14.55395900      11.37627000      10.08093700       0.02054616       0.01794874       0.01050198       0.43100604       0.34956228      -0.32113019       0.41045988       0.33161354      -0.33163217
O       12.14314400      11.07967600       8.04099400       0.00976692       0.00011275      -0.00317355      -0.06651120       0.35800598       0.01757426      -0.07627812       0.35789323       0.02074781
H       11.82105100      11.39304700       8.88696500      -0.00758349       0.00773605      -0.00060702       0.00796728      -0.39971314       0.85470294       0.01555077      -0.40744919       0.85530996
H       11.95545100      11.86582600       7.52867900      -0.00626250      -0.00187475       0.00481898       0.07822597       0.08533451      -0.74025994       0.08448847       0.08720926      -0.74507892
O       14.72244400      13.49991500      11.02053800      -0.00717878       0.00132207       0.02453660       0.90331793      -0.18104831      -1.43088175       0.91049671      -0.18237038      -1.45541835
H       15.65016500      13.22299500      11.19401000      -0.00605668      -0.00181546      -0.00274532      -0.81917693       0.35965026      -0.06500186      -0.81312025       0.36146572      -0.06225654
H       14.66659300      13.78092800      10.07518900      -0.01927243      -0.00841621      -0.01535416       0.30277164      -0.27498645       0.98744952       0.32204407      -0.26657024       1.00280368
27
Properties=species:S:1:pos:R:3:REF_forces:R:3:DFT_forces:R:3:FOUNDATION_forces:R:3 REF_energy=0.037330828337871935 charge=0 spin=1 external_field="0.0 0.0 0.0" config_type=ORCA_DFT source_file=C_DFTprod_cutcluster_0023.out orca_step=0 DFT_energy=-18719.411887921662 FOUNDATION_energy=-18719.44921875 pbc="F F F"
O       11.21943400       9.13555100      11.34783300      -0.01368979      -0.01837698      -0.00182891      -1.44332615       1.58541175      -1.90545380      -1.42963636       1.60378873      -1.90362489
H       10.78636500       8.49311800      10.78345000      -0.00619460       0.00415652       0.00863818      -0.12709365      -0.22009827       0.15718733      -0.12089905      -0.22425479       0.14854915
H       11.68327400       8.72098800      12.02488600      -0.00196002       0.00298793      -0.00117215       1.47618248      -1.71190911       2.22552649       1.47814250      -1.71489704       2.22669864
O       12.65207500      10.46834900       9.58305300       0.00492556       0.05090538      -0.02462369      -0.03103666      -0.75511279       0.55054105      -0.03596222      -0.80601817       0.57516474
H       13.52014000      10.07155300       9.42793300       0.01195652      -0.04162391       0.00560548      -0.49365812       0.25009225      -0.22016970      -0.50561464       0.29171616      -0.22577518
H       12.20444900       9.90626200      10.29821000       0.01359436       0.00753669       0.00574495       0.61128995       0.87504546      -1.10052942       0.59769559       0.86750877      -1.10627437
O       13.22985100       8.26663900      13.29718400       0.02760519       0.00190597       0.00613693       0.20960694       1.88889533      -0.41940203       0.18200175       1.88698936      -0.42553896
H       13.67760400       7.44104500      13.16454000      -0.00263400      -0.00200647       0.00156943       0.49886470      -0.52012259      -0.07925858       0.50149870      -0.51811612      -0.08082801
H       13.86702700       8.99259600      13.02956300      -0.01437683       0.00205665       0.00208010      -0.80001933      -1.34749300       0.42804073      -0.78564250      -1.34954965       0.42596063
O       10.89503600      13.20359400       9.68300000       0.01295126      -0.03979762      -0.04103760       1.29710925      -2.16751798      -0.64667682       1.28415799      -2.12772036      -0.60563922
H       11.26208100      12.56442100       8.99791800      -0.00975543       0.02381612       0.00480934      -0.79695159       1.21350957       0.96878501      -0.78719616       1.18969345       0.96397567
H       11.32260500      12.79227000      10.48464900      -0.00224289       0.00826483       0.02139064      -0.70769188       0.71802442      -0.70151959      -0.70544899       0.70975959      -0.72291023
O       14.87416000       9.78512400      11.47123300       0.00847609      -0.03845011      -0.00798323       1.08155031       0.89196188       0.49348889       1.07307422       0.93041199       0.50147212
H       14.49352700       9.26309400      10.79620100      -0.00921591       0.03479952      -0.00111091      -1.11804743      -1.22905081      -0.79139405      -1.10883152      -1.26385033      -0.79028314
H       15.62036500      10.14151700      10.97288200      -0.00028948       0.00426162       0.00368815       0.29745414       0.28644241       0.54846077       0.29774362       0.28218079       0.54477262
O       12.00000000      12.00000000      12.00000000      -0.00853664       0.03083779       0.03752767      -0.77108747       1.71212734       0.58521192      -0.76255083       1.68128955       0.54768425
H       11.57912300      11.15550700      12.04126000       0.01058559      -0.01023254      -0.01370696       0.11302689      -1.05496320      -0.15992139       0.10244130      -1.04473066      -0.14621443
H       12.93288200      12.00279500      11.82883900      -0.02596468      -0.02133465       0.01005111       0.36743366      -0.69098896      -0.00232032       0.39339834      -0.66965431      -0.01237143
O       10.58097600      14.63236900      12.18159600       0.02899100       0.00641349       0.04675717       0.99700935      -0.29256698       2.67204184       0.96801835      -0.29898047       2.62528467
H       11.14017300      13.83304000      12.27273600      -0.00098769      -0.01522909      -0.01363487      -0.36512018       0.11502895      -0.83892120      -0.36413249       0.13025804      -0.82528633
H       10.71172400      14.89605600      13.14146300      -0.01801393      -0.00182427      -0.01436618      -0.67222700       0.25552468      -1.63548985      -0.65421307       0.25734895      -1.62112367
O       12.69742100      15.35464400       9.30030400       0.00219637      -0.01468403       0.00516621       0.86402988      -0.03696758       0.39957229       0.86183351      -0.02228355       0.39440608
H       13.09792600      14.88731200      10.06681000      -0.00307773      -0.00652907      -0.00710641      -0.52582936       0.53056070      -0.72055732      -0.52275163       0.53708977      -0.71345091
H       11.87884600      14.87918000       9.13921700       0.00292771       0.01850353      -0.01322036      -0.23873589      -0.21632986       0.26455615      -0.24166360      -0.23483339       0.27777651
O       14.06623900      13.90228200      11.42312900       0.00546085       0.03053291      -0.02269789       0.84412943      -1.50704663      -0.19051074       0.83866858      -1.53757954      -0.16781285
H       14.33520100      13.03706200      11.01667600      -0.00727403      -0.01131692      -0.02102183      -0.27797931       1.31739340       0.23201729      -0.27070528       1.32871032       0.25303912
H       14.85838200      14.16702200      11.91506200      -0.00545660      -0.00557357       0.02434568      -0.28888300       0.11014962      -0.11330493      -0.28342640       0.11572319      -0.13765061
27
Properties=species:S:1:pos:R:3:REF_forces:R:3:DFT_forces:R:3:FOUNDATION_forces:R:3 REF_energy=-0.009885858969937544 charge=0 spin=1 external_field="0.0 0.0 0.0" config_type=ORCA_DFT source_file=C_DFTprod_cutcluster_0024.out orca_step=0 DFT_energy=-18720.07629210897 FOUNDATION_energy=-18720.06640625 pbc="F F F"
O       11.45578800      14.05472500       9.54835200      -0.00698683      -0.00120652      -0.00397118      -0.18295797       0.25760790       0.49682484      -0.17597114       0.25881442       0.50079602
H       11.83722800      13.34491700      10.10975000       0.00871726      -0.00223126       0.00518468      -0.09207085       0.25620217      -0.59659430      -0.10078811       0.25843343      -0.60177898
H       11.42779700      13.79239000       8.62983000      -0.00718005       0.00296672       0.00331103       0.15337758      -0.29614339      -0.03908036       0.16055763      -0.29911011      -0.04239139
O       12.51784600      12.09288000      11.11611900       0.00839067       0.03841056      -0.02005108      -1.15217626      -0.71347450       1.72241597      -1.16056693      -0.75188506       1.74246705
H       12.00000000      12.00000000      12.00000000       0.00907410      -0.02516039       0.00211733       0.59570886       0.50698451      -1.51826090       0.58663476       0.53214490      -1.52037823
H       13.37933100      12.33509600      11.45785000       0.00115757       0.00827100      -0.00092288       0.72046785       0.17131436      -0.04081272       0.71931028       0.16304336      -0.03988984
O        9.72613400       9.05683400      11.48967200       0.00071475      -0.02737841       0.01108444      -0.80720273       1.66439357      -0.12810486      -0.80791748       1.69177198      -0.13918930
H        9.32008600       9.95920700      11.46282500      -0.01893924       0.01049138      -0.00080933       0.09905942      -1.04254400      -0.00854326       0.11799866      -1.05303538      -0.00773393
H       10.24496800       9.09360500      10.68204200       0.00817394       0.00811432      -0.00470257       0.50152677      -0.44347383      -0.09250871       0.49335283      -0.45158815      -0.08780614
O        9.99053700       9.74867300      14.15050800      -0.01231320      -0.00099946       0.00436500       1.11938374      -0.48685462       1.15613082       1.13169694      -0.48585516       1.15176582
H        9.85293800       9.47706500      13.23718900       0.00926428      -0.00618047      -0.00620291       0.06676579      -0.63391942      -0.29077369       0.05750151      -0.62773895      -0.28457078
H       10.51491800       9.02589300      14.58870100      -0.00690110      -0.01284686       0.00141237      -0.94743158       0.99015221      -0.68502375      -0.94053048       1.00299907      -0.68643612
O       13.36745100      10.95895800       8.72155600      -0.00832042      -0.02619097      -0.00817404      -1.48218951       1.11474660      -1.46913514      -1.47386909       1.14093757      -1.46096110
H       13.01906000      11.34442200       7.86284000       0.01004246       0.00501224       0.00839443       0.90889290      -0.85886833       1.32882042       0.89885044      -0.86388057       1.32042599
H       12.72872100      11.35116400       9.35360100       0.00161242       0.01356842       0.00007503       0.69617658      -0.36178736       0.05371590       0.69456416      -0.37535578       0.05364087
O       14.72293100      11.97430100      13.28092100       0.01391487       0.02681949       0.00144126      -0.37185390      -0.18121142       0.14151507      -0.38576877      -0.20803091       0.14007381
H       15.59767800      11.58505200      13.19616400      -0.00588694      -0.01197595      -0.00007872       0.09312932       0.00869048      -0.06294601       0.09901626       0.02066643      -0.06286729
H       14.20014100      11.29700600      13.73517500       0.00440292      -0.01195526       0.00500943       0.15411307       0.14567399      -0.13458045       0.14971015       0.15762925      -0.13958988
O       11.35564300      12.20880300      13.51166600      -0.04405456      -0.01391883      -0.02165753      -1.49383049      -0.29448806       0.36905422      -1.44977593      -0.28056923       0.39071175
H       10.98280600      11.33382900      13.79129200       0.01846751       0.01301732      -0.00549498       0.25087438       0.41422316       0.06387423       0.23240687       0.40120584       0.06936921
H       10.54647000      12.77530400      13.53234900       0.01608920       0.01921698       0.02046738       1.06539833      -0.31796074      -0.07873279       1.04930913      -0.33717772      -0.09920017
O       12.74199300       8.91850700      12.17343300       0.00383571      -0.01203808      -0.00220833       0.38519278       0.80566326      -0.31248630       0.38135707       0.81770134      -0.31027797
H       12.02535400       9.04900700      12.79493400      -0.00315857       0.00324677       0.01171506      -0.24109735      -0.01665365       0.06195428      -0.23793878      -0.01990042       0.05023922
H       12.86639700       9.80551600      11.77184000      -0.00352544       0.00534650       0.00107490      -0.03228560      -0.65161673       0.10894572      -0.02876016      -0.65696323       0.10787082
O       13.46211300      15.01812200      14.20112200       0.00898553       0.01414120      -0.00880913      -0.29289346      -1.27540040       0.08867206      -0.30187899      -1.28954160       0.09748119
H       13.33197600      14.03550400      14.23899700       0.00290538      -0.01086791       0.00594548       0.28246496       1.30009703      -0.10616615       0.27955958       1.31096494      -0.11211163
H       14.07937600      15.21281900      14.91287400      -0.00848236      -0.00567240       0.00148566       0.00345752      -0.06135280      -0.02817410       0.01193988      -0.05568040      -0.02965976
27
Properties=species:S:1:pos:R:3:REF_forces:R:3:DFT_forces:R:3:FOUNDATION_forces:R:3 REF_energy=-0.008541644518118119 charge=0 spin=1 external_field="0.0 0.0 0.0" config_type=ORCA_DFT source_file=C_DFTprod_cutcluster_0026.out orca_step=0 DFT_energy=-18719.489010394518 FOUNDATION_energy=-18719.48046875 pbc="F F F"
O       12.21746200      11.80637600      12.90243900      -0.01057768       0.00010359      -0.00931515      -0.05474949       1.36485052       0.84486173      -0.04417181       1.36474693       0.85417688
H       12.07939300      10.88217700      12.99816000       0.01115728      -0.01276378       0.00993440       0.10902100      -1.37474541       0.06793513       0.09786372      -1.36198163       0.05800073
H       12.00000000      12.00000000      12.00000000      -0.00192252       0.00456648      -0.00712831      -0.09939839       0.41502761      -1.06308300      -0.09747587       0.41046113      -1.05595469
O        9.59992800      14.01604400      11.28825600       0.00197688       0.00825401       0.00517333       0.17584881      -1.44341974       1.03111637       0.17387193      -1.45167375       1.02594304
H        9.19091200      13.18902900      10.98324200       0.00311284      -0.00441581      -0.00408872      -0.18912337       0.51670235      -0.12741715      -0.19223621       0.52111816      -0.12332843
H        9.93719200      13.69980400      12.17093500       0.00553555      -0.00588175       0.00796470      -0.25439139       1.05164210      -0.76577136      -0.25992694       1.05752385      -0.77373606
O       12.83596200       9.12658600      12.81938000      -0.01258834      -0.00065487      -0.01974771      -0.43892272      -0.54787945       0.69723597      -0.42633438      -0.54722458       0.71698368
H       12.02313200       8.58012400      12.87972100       0.00787075      -0.00393899       0.01903777       0.98275222       0.28551079       0.18106178       0.97488147       0.28944978       0.16202401
H       13.34961600       9.03021600      13.65118800       0.00142109       0.00493238      -0.00183126      -0.68069756      -0.16511559      -0.66291174      -0.68211865      -0.17004797      -0.66108048
O       11.93899200      12.94436800      10.03998600      -0.01116938       0.01585506       0.02566298       2.12331372      -0.08031464       0.47474524       2.13448310      -0.09616970       0.44908226
H       11.04680700      12.78031300       9.77091000      -0.00903052       0.00262520      -0.00767815      -0.40497968      -0.16365073      -0.54251659      -0.39594916      -0.16627593      -0.53483844
H       12.65225400      12.41299600       9.58131500       0.00363212      -0.01213995      -0.01347076      -1.46429247       0.27048558       0.36871360      -1.46792459       0.28262553       0.38218436
O       14.13713400      14.36543200      11.67943300       0.03422667       0.00564579      -0.00212815      -1.48632430       1.24277047      -1.16274550      -1.52055097       1.23712468      -1.16061735
H       14.09915000      15.35764700      11.50876400      -0.01604870      -0.00072975      -0.02349894      -0.00931603      -2.03629560       0.34286795       0.00673267      -2.03556585       0.36636689
H       13.30202500      13.99082900      11.25908700      -0.01684620      -0.00069257       0.01966045       1.26051042       0.77707706       0.65242390       1.27735662       0.77776963       0.63276345
O       13.83492100      11.10117900       9.22354100       0.02019956       0.01124694       0.00628906      -0.38711581       0.30654653       1.40314155      -0.40731537       0.29529959       1.39685249
H       14.12917900      11.29874200       8.36747600      -0.00219763      -0.00286987      -0.00628687       1.11433064       0.76193974      -1.97287918       1.11652827       0.76480961      -1.96659231
H       13.28187900      10.35323100       9.05370900       0.00368274      -0.00243932      -0.00010119      -0.60212927      -1.02637058       0.30838050      -0.60581201      -1.02393126       0.30848169
O       15.29241500      10.04390900      11.56187200       0.00920398      -0.02679212      -0.00026483      -1.13013928       0.71806752       0.01678874      -1.13934326       0.74485964       0.01705357
H       15.19075400      10.87388800      11.04161200      -0.00920041       0.00686119       0.00718835       0.15894844      -0.89717819       0.54949924       0.16814885      -0.90403938       0.54231089
H       14.38701000       9.90924400      11.93703900      -0.00912580       0.01339420      -0.00260180       1.07882407       0.12839494      -0.59936410       1.08794987       0.11500074      -0.59676230
O       10.32103500      13.80464400      14.34372100      -0.00533299      -0.01173202      -0.01662681       1.20193441       3.39377554       0.70361575       1.20726740       3.40550756       0.72024256
H       11.21425200      14.27960100      14.51763800       0.01197041      -0.00150904       0.01462618      -2.18496024      -1.83344290      -0.61235156      -2.19693065      -1.83193386      -0.62697774
H       10.45088900      12.90504000      14.14496500      -0.00626494       0.01708910      -0.00654740       1.13273059      -1.68931857      -0.20082436       1.13899553      -1.70640767      -0.19427696
O       15.20520700      13.36442900      14.08127600      -0.01983398       0.01003508      -0.01398253      -1.05208963      -1.15038260      -0.75362968      -1.03225565      -1.16041768      -0.73964715
H       14.68747000      13.63505900      13.24578900       0.00595458      -0.02070388       0.02456379       0.96258469      -0.87060228       1.60683572       0.95663011      -0.84989840       1.58227193
H       15.02907100      12.39406500      14.27884200       0.01019432       0.00665434      -0.00480174       0.13783063       2.04592546      -0.78572898       0.12763631       2.03927112      -0.78092724
27
Properties=species:S:1:pos:R:3:REF_forces:R:3:DFT_forces:R:3:FOUNDATION_forces:R:3 REF_energy=0.007265913711307803 charge=0 spin=1 external_field="0.0 0.0 0.0" config_type=ORCA_DFT source_file=C_DFTprod_cutcluster_0027.out orca_step=0 DFT_energy=-18719.54546846129 FOUNDATION_energy=-18719.552734375 pbc="F F F"
O       14.40528500      11.78273500      10.93359000       0.03773695      -0.00472735       0.01819002      -1.19671589       0.99380632       0.58321320      -1.23445284       0.99853367       0.56502318
H       14.74428600      12.64383700      10.62958300      -0.02540600      -0.00329016      -0.00820180      -0.12503646      -0.59239291       0.26172922      -0.09963046      -0.58910275       0.26993102
H       13.56830600      12.02431800      11.46577000      -0.03349616      -0.00530669       0.00894673       1.73885880      -0.46158859      -0.93590538       1.77235496      -0.45628190      -0.94485211
O       13.23939600       9.10899800      13.69377900       0.00332169       0.00582152      -0.00211566       3.11393814      -1.53369195      -0.53821503       3.11061645      -1.53951347      -0.53609937
H       12.49313900       9.61358600      13.79707900       0.00078053      -0.00079931       0.00400457      -3.33935886       1.65139829       0.56348178      -3.34013939       1.65219760       0.55947721
H       13.87365600       9.75443600      13.36474600       0.00166455       0.00147678      -0.00659966       0.28791899      -0.15366431      -0.08817018       0.28625444      -0.15514109      -0.08157052
O       10.39993300      14.66228700      13.15698100      -0.00383574       0.00128080       0.00529854      -0.84579736      -0.05025689       1.85995607      -0.84196162      -0.05153769       1.85465753
H       10.83912600      15.28096400      13.79969900      -0.00192098      -0.00104131      -0.01134110      -0.68655072      -0.88752128      -0.98774648      -0.68462974      -0.88647997      -0.97640538
H        9.64019000      14.25286700      13.67862000       0.00742327       0.00686905       0.01086244       1.44825398       0.77976844      -0.98373726       1.44083071       0.77289939      -0.99459970
O        8.85029000      11.90390400      12.40117300       0.00579876      -0.02381041      -0.00914465      -0.97565716       0.07437024       0.52974911      -0.98145592       0.09818065       0.53889376
H        7.86359800      11.85773400      12.38219600      -0.01362998       0.00881575       0.00453471       1.36567908       0.21454546      -0.19235561       1.37930906       0.20572971      -0.19689032
H        9.15689100      12.55706300      11.76047200       0.01117000       0.01237323      -0.01798423      -0.39204621      -0.17599213      -0.41326239      -0.40321621      -0.18836536      -0.39527816
O       10.80286300      10.31803500      10.12705800      -0.03310363       0.01410031       0.00991356       0.65379615      -0.34133151       0.21442771       0.68689978      -0.35543182       0.20451415
H       10.04351100      10.02270300       9.58914400       0.00967926      -0.01072953       0.00238027       1.01934082      -0.36515010       0.49353995       1.00966156      -0.35442057       0.49115968
H       11.51931100       9.64444400      10.28172000       0.00313056      -0.00991942      -0.01295900      -1.49198937       0.66067468      -0.82570552      -1.49511993       0.67059410      -0.81274652
O       14.66793200      13.69122400      14.02588000       0.01406420       0.00232615      -0.01930335      -0.50182091       0.18298023       0.10693219      -0.51588511       0.18065408       0.12623554
H       15.24178900      13.74321400      14.79481300      -0.00480438       0.00063832       0.01091760       0.04974087      -0.02391723       0.04935547       0.05454525      -0.02455555       0.03843787
H       13.78543400      13.92152100      14.35934400      -0.00713624      -0.00245182       0.00895769       0.44105350      -0.16450120      -0.16740053       0.44818974      -0.16204938      -0.17635822
O       10.07667500      13.52244000      10.16669200      -0.00929093       0.02552097      -0.01715362       1.45231390      -0.00156637      -1.79451835       1.46160483      -0.02708734      -1.77736473
H       10.84458100      13.66135100       9.50979500       0.00338641      -0.00064737       0.01247832      -1.83051714      -0.34560854       1.71452495      -1.83390355      -0.34496117       1.70204663
H       10.24171100      14.12163300      10.89367300      -0.00291625      -0.01731519      -0.00953743       0.38180828       0.56621702       0.28610030       0.38472453       0.58353221       0.29563773
O       12.00000000      12.00000000      12.00000000       0.03084896       0.06087354      -0.01657010      -1.12897040       0.27763340       0.54118507      -1.15981936       0.21675986       0.55775517
H       11.33513600      12.31281200      12.64831400       0.00414867      -0.05198217       0.00094090       0.74448092      -0.04963001      -0.47434651       0.74033225       0.00235216      -0.47528741
H       11.47293000      11.82668700      11.19779200       0.01190270       0.01152786       0.01508166       0.06690119      -0.14812574       0.12944631       0.05499849      -0.15965360       0.11436465
O       10.39146400       9.58376500      13.30257700      -0.01387361      -0.00350030      -0.02491590       0.63638958       0.39507009      -0.58360210       0.65026319       0.39857039      -0.55868620
H       10.88088900       9.51603900      12.44612400      -0.01725281       0.00167713       0.02984845      -0.78404845       0.24986291       1.02826404      -0.76679564       0.24818578       0.99841559
H       10.15491100      10.52950400      13.37167700       0.02160958      -0.01778040       0.01347186      -0.10196543      -0.75138835      -0.37693990      -0.12357501      -0.73360795      -0.39041176
27
Properties=species:S:1:pos:R:3:REF_forces:R:3:DFT_forces:R:3:FOUNDATION_forces:R:3 REF_energy=-0.012026850483380258 charge=0 spin=1 external_field="0.0 0.0 0.0" config_type=ORCA_DFT source_file=C_DFTprod_cutcluster_0028.out orca_step=0 DFT_energy=-18719.990542475483 FOUNDATION_energy=-18719.978515625 pbc="F F F"
O       11.91893400      15.11105300      12.02534600       0.03168919      -0.00993922       0.03427210      -2.13573740      -0.37943089      -0.95974938      -2.16742659      -0.36949167      -0.99402148
H       10.98014900      15.48889700      11.95803200      -0.03380584       0.00363438      -0.00629822       2.01181818      -0.90236153       0.19066089       2.04562402      -0.90599591       0.19695911
H       11.87350100      14.22718600      11.56148400       0.00166305      -0.02035324      -0.01056611       0.13676347       1.35670419       0.62012041       0.13510042       1.37705743       0.63068652
O       11.93950900      14.07087000      14.61570100      -0.00396850       0.01084338      -0.00020721       0.65055857      -0.21471973      -0.48586228       0.65452707      -0.22556311      -0.48565507
H       12.88309800      13.95645400      14.85716100       0.01479395       0.01024185       0.00176119      -0.79458813       0.41342895      -0.29936601      -0.80938208       0.40318710      -0.30112720
H       11.95405000      14.33866200      13.65863400       0.00491783      -0.00266532      -0.01338902       0.15639034      -0.03833962       1.06271502       0.15147251      -0.03567430       1.07610404
O       12.80592200      10.60399600      14.34731400      -0.00002845      -0.01403518      -0.00044408      -0.20001389      -0.87139346       0.18569881      -0.19998544      -0.85735828       0.18614289
H       13.02227700       9.77405700      13.88856700      -0.00099116      -0.01417683       0.00497919       0.13778893       0.38334246      -0.09414933       0.13878009       0.39751929      -0.09912852
H       12.26510900      10.27975600      15.08561900      -0.00231857       0.00840037      -0.00721023       0.09111080       0.45301442      -0.12889517       0.09342937       0.44461405      -0.12168494
O       12.00000000      12.00000000      12.00000000      -0.01715129       0.00298425      -0.00601967       0.01843605      -0.28164098       0.49041138       0.03558734      -0.28462523       0.49643105
H       12.11179400      11.60972600      12.91249100       0.00368392       0.01380170      -0.02284575      -0.56760788       0.76622695      -0.96795881      -0.57129180       0.75242525      -0.94511306
H       11.09086600      12.36042000      11.89444000       0.02591796       0.00874033       0.01933604       0.52701206      -0.53110675       0.42003864       0.50109410      -0.53984708       0.40070260
O        9.85359900      13.34894200      10.51213800       0.00695233       0.01214578      -0.00452710      -0.03262843      -0.12126342      -0.23198135      -0.03958076      -0.13340920      -0.22745425
H       10.06871600      14.15359900      10.01117000       0.00675749      -0.00084580       0.00470432      -0.20975622      -0.65907962      -0.10002615      -0.21651371      -0.65823382      -0.10473047
H        9.55400700      12.65212900       9.89531000      -0.00605412      -0.00345730      -0.00357831       0.27383356       0.80413402       0.29491311       0.27988768       0.80759132       0.29849142
O       14.52563100      13.22128300      11.19668500       0.00318939      -0.01670725       0.01691271      -3.47848933      -0.21038763      -0.88389515      -3.48167872      -0.19368038      -0.90080786
H       13.73146900      12.74579400      11.59590300      -0.02033391       0.01472893      -0.00060459       1.10210834       0.92682460      -0.82059797       1.12244225       0.91209567      -0.81999338
H       15.21472300      12.92873800      11.72203900       0.00055614       0.01656456      -0.00538568       2.32823601      -0.70617806       1.63828834       2.32767987      -0.72274262       1.64367402
O       12.15229000       9.38633400      10.74020500      -0.00315826      -0.00578324      -0.00502438      -0.00702708       0.71335479       0.14847932      -0.00386882       0.71913803       0.15350370
H       12.05068000      10.30386000      11.07196700      -0.00497866       0.00819863       0.00468920      -0.10383571      -0.25357394       0.16739122      -0.09885705      -0.26177257       0.16270202
H       12.74667400       9.54488000      10.00225300       0.00562037       0.00027200       0.00520075       0.11553963      -0.33167238      -0.20305433       0.10991926      -0.33194438      -0.20825508
O       14.65815900      12.98274000      14.80259600      -0.01379871       0.00347701      -0.01284533      -0.56924712       1.36732999      -0.15000629      -0.55544841       1.36385298      -0.13716096
H       13.97475900      12.32556000      14.81538300       0.00587130       0.00806380      -0.00090849      -0.43137437      -0.92401706      -0.07979270      -0.43724567      -0.93208086      -0.07888421
H       15.48077300      12.54242000      14.88783800       0.00958375      -0.00791550       0.00776427       1.08439354      -0.68313527       0.19202568       1.07480979      -0.67521977       0.18426141
O        9.39551400      11.06628100      12.76000200       0.00622919      -0.03993431       0.00611941      -0.06105676       1.66071757      -1.05917009      -0.06728595       1.70065188      -1.06528950
H        9.30720400      10.90607700      13.68000800      -0.00855626       0.02771714      -0.00167347      -0.11563800      -0.69025198       1.01040875      -0.10708174      -0.71796912       1.01208222
H        9.49639600      10.28307800      12.24271200      -0.01228182      -0.01400091      -0.00421171       0.07301100      -1.04652561       0.04335338       0.08529282      -1.03252470       0.04756509
27
Properties=species:S:1:pos:R:3:REF_forces:R:3:DFT_forces:R:3:FOUNDATION_forces:R:3 REF_energy=-0.00036008929600939155 charge=0 spin=1 external_field="0.0 0.0 0.0" config_type=ORCA_DFT source_file=C_DFTprod_cutcluster_0029.out orca_step=0 DFT_energy=-18719.209344464296 FOUNDATION_energy=-18719.208984375 pbc="F F F"
O        9.12442300      15.81257600      11.91877500      -0.01984557       0.00087786      -0.00164503       2.55561081      -1.76906669       0.79894990       2.57545638      -1.76994455       0.80059493
H        8.71231100      16.02200700      11.12227400      -0.00951204       0.01211127       0.00177066      -1.59764228       0.94489905      -1.97606833      -1.58813024       0.93278778      -1.97783899
H        9.92131300      15.32522600      11.55314500       0.03227681      -0.00741707       0.00312308      -0.82938570       0.89854313       1.27522746      -0.86166251       0.90596020       1.27210438
O       10.14421900      11.45196900      14.91066700      -0.00253614       0.00005839      -0.00193599       0.30943177      -1.77285614       0.04459121       0.31196791      -1.77291453       0.04652720
H        9.90603100      12.31941000      15.13307700      -0.00707555       0.00739508      -0.00616265      -0.62199891       2.02271061       0.44131225      -0.61492336       2.01531553       0.44747490
H       10.68216600      11.54493300      14.12927100       0.00506620      -0.00112383      -0.00809647       0.28823514      -0.00367981      -0.83128096       0.28316894      -0.00255598      -0.82318449
O       10.22170000      10.60016600      17.58924500      -0.00630504       0.00391713      -0.01205726      -0.34057766       2.85626808      -0.21784753      -0.33427262       2.85235095      -0.20579027
H       10.16648800      11.57682700      17.86157000       0.00994271       0.00129797       0.00242268       0.19960874      -2.21669481       0.03977358       0.18966603      -2.21799278       0.03735090
H       10.12505000      10.76537700      16.62541400      -0.00391130      -0.01253089       0.00784076       0.28098612      -0.78653589       0.45808629       0.28489742      -0.77400500       0.45024553
O       12.41756000      15.03890600      12.27968600      -0.00907947       0.01303861       0.01153492      -0.18725377      -1.17601969      -0.15227344      -0.17817430      -1.18905830      -0.16380836
H       12.10089400      14.18595500      12.69040000       0.00752190       0.00335690      -0.01680627       0.53306511       1.22538277      -0.98286190       0.52554321       1.22202587      -0.96605563
H       12.87180500      14.81967500      11.43222800       0.00994685      -0.00761308       0.00048076      -0.48105169      -0.04437076       0.87714456      -0.49099854      -0.03675768       0.87666380
O        7.57826000      10.24633300      14.63125700       0.00609139      -0.00906683       0.00525654       0.64445302      -0.25535155      -0.01590500       0.63836163      -0.24628472      -0.02116154
H        8.55235000      10.36639000      14.72888800      -0.00219869       0.00247665       0.00419781      -1.08412229       0.22412858      -0.09600994      -1.08192360       0.22165193      -0.10020775
H        7.17405400      11.10485100      14.78426800      -0.00052572       0.00750189      -0.00693998       0.21079057      -0.00362680       0.02451429       0.21131629      -0.01112869       0.03145427
O       12.79142500      13.99564800       9.17797100      -0.00899778       0.01324110       0.02255223      -2.79729782      -0.61129530       2.18945191      -2.78830004      -0.62453640       2.16689968
H       13.10748800      13.37644600       8.54356500       0.00289086      -0.00586724      -0.01811382       0.78611115      -0.80291891      -0.99102911       0.78322029      -0.79705167      -0.97291529
H       11.98246700      13.46830200       9.57212600       0.00162473      -0.00609043       0.00367246       2.36557141       1.62651953      -1.09393778       2.36394668       1.63260996      -1.09761024
O       13.52439200      11.73594100       7.46559700       0.02690063       0.00929722      -0.01064597       0.33419047      -1.64169613      -0.69535367       0.30728984      -1.65099335      -0.68470770
H       14.27555800      11.32178300       6.98504300      -0.01454255      -0.00984821      -0.00214063      -0.29555702       0.90728977       0.41430400      -0.28101447       0.91713798       0.41644463
H       12.95640100      10.94314900       7.50887800      -0.00426726       0.00070436       0.00437172      -0.04775022       0.64634849       0.23333586      -0.04348296       0.64564413       0.22896414
O       10.40909400      12.59708200       9.68093000      -0.00434342       0.00635664       0.01045954       1.00358376      -2.20043381      -0.57825971       1.00792718      -2.20679045      -0.58871925
H        9.89738200      13.34460200       9.52500800       0.01202430      -0.00530754      -0.00662886      -1.62415622       2.29068674      -0.39237608      -1.63618052       2.29599428      -0.38574722
H       10.40020500      12.11999800       8.83407800      -0.01013115      -0.01096817       0.00970026       0.00940258      -0.00854059       0.45087691       0.01953373       0.00242758       0.44117665
O       11.07015800      12.26731500      12.20324300      -0.01507601      -0.02207093      -0.01310692       0.50171092      -0.17215018      -1.15173624       0.51678693      -0.15007925      -1.13862932
H       12.00000000      12.00000000      12.00000000       0.00173337       0.02425587       0.00261750      -1.17752986       0.27206860       0.06028708      -1.17926323       0.24781273       0.05766958
H       10.61345300      12.35429500      11.29791300       0.00232721      -0.00798285       0.01427879       1.06157196      -0.44960833       1.86708440       1.05924475      -0.44162548       1.85280561
27
Properties=species:S:1:pos:R:3:REF_forces:R:3:DFT_forces:R:3:FOUNDATION_forces:R:3 REF_energy=-0.010732388378528412 charge=0 spin=1 external_field="0.0 0.0 0.0" config_type=ORCA_DFT source_file=C_DFTprod_cutcluster_0030.out orca_step=0 DFT_energy=-18719.80370113838 FOUNDATION_energy=-18719.79296875 pbc="F F F"
O       14.46337800      14.76238300      14.04478200       0.00019987       0.02213388       0.02741441      -0.98040084       2.65403753      -0.88114849      -0.98060071       2.63190365      -0.90856290
H       14.01134900      14.03566800      14.45170400      -0.00398029       0.02247609       0.00518852      -0.55153741      -1.11266791       0.26644426      -0.54755712      -1.13514400       0.26125574
H       13.76279400      15.38087400      13.67209000      -0.00676494      -0.00751991      -0.01280940       1.36795981      -1.26793093       0.85327732       1.37472475      -1.26041102       0.86608672
O       10.14328200      12.75918200       8.96176000       0.00107879      -0.01343561       0.01141400      -0.41349744       0.10416578      -0.29552349      -0.41457623       0.11760139      -0.30693749
H       10.75199900      12.14627800       9.38557600       0.00140377      -0.00233112      -0.00156691      -0.17917145      -0.03541258       0.04053355      -0.18057522      -0.03308146       0.04210046
H        9.35524200      12.23883300       8.72907000      -0.00469762      -0.00396328      -0.00485666       0.60258913       0.13863811       0.26847322       0.60728675       0.14260139       0.27332988
O        9.87827700      10.10898300      10.20753000      -0.01418374       0.03210011      -0.01278162       0.39284428      -0.28160709       0.35541046       0.40702802      -0.31370720       0.36819208
H        9.96502500      10.38688200      11.14896300       0.01448214      -0.01268606      -0.00708208       0.45925835      -0.46567701      -1.12145219       0.44477621      -0.45299095      -1.11437011
H       10.67400800       9.62425800       9.89372000      -0.00312847       0.00029524       0.00277203      -0.76246548       0.65063586       0.75533139      -0.75933701       0.65034062       0.75255936
O       11.17641600      10.86032100      13.33133800       0.03193614       0.04465038       0.02300783       0.47583389       1.35795528      -0.26894728       0.44389775       1.31330490      -0.29195511
H       10.25751400      10.70774000      13.52150100      -0.01120924      -0.03327135      -0.02000909      -0.37920802      -0.35163129       0.27162195      -0.36799878      -0.31835994       0.29163104
H       11.64037700      10.02879700      13.20890700       0.00157123      -0.00431239       0.00997744      -0.30416981      -0.87994408       0.16016061      -0.30574104      -0.87563169       0.15018317
O       13.75308200      12.12477900      14.26222700       0.01285992      -0.02784048      -0.00156959      -1.34749069      -0.43703394       0.23654614      -1.36035061      -0.40919346       0.23811573
H       12.81042100      11.81360400      14.16133800      -0.01614907      -0.00300771      -0.01016612       1.58093664       0.33460817      -0.04273220       1.59708571       0.33761588      -0.03256608
H       14.26187400      11.84586300      13.48165700       0.01433443       0.00410089      -0.00633919      -0.31569920       0.00311674       0.06688962      -0.33003363      -0.00098415       0.07322881
O       11.83846800       8.32355200      12.66064200      -0.01173060       0.00802417      -0.00676811      -1.95805960      -1.99557071      -0.85001433      -1.94632900      -2.00359488      -0.84324622
H       11.08547700       7.61150000      12.66778300       0.01697842       0.00632907      -0.00184826       2.12088624       2.00621236       0.07101192       2.10390782       1.99988329       0.07286018
H       11.96060400       8.50053900      11.70623800      -0.00614806      -0.01052292       0.01445517       0.02066977      -0.26647280       0.64579287       0.02681783      -0.25594988       0.63133770
O       15.11553400      11.50780600      11.72790600      -0.03801102      -0.02091641       0.00651522       2.12015944      -1.24182148       0.78242280       2.15817046      -1.22090507       0.77590758
H       15.83228300      10.95427500      11.33757000       0.01728488       0.01125103       0.00030146      -1.13995575       0.61454230       0.24978454      -1.15724063       0.60329127       0.24948308
H       14.34664100      11.55262200      11.18638700       0.01804145      -0.00006195      -0.01877434      -1.05841331       0.18002881      -1.00281418      -1.07645476       0.18009076      -0.98403984
O       12.57347500      12.46206900      11.38923100      -0.01979183      -0.00072890       0.01849281       0.20185054       0.51233358      -0.58778847       0.22164237       0.51306248      -0.60628128
H       12.55513400      13.40118600      11.64345600       0.01766415       0.02383055      -0.00865825       0.09986731      -0.56696223      -0.15957219       0.08220316      -0.59079278      -0.15091394
H       12.00000000      12.00000000      12.00000000       0.00036551      -0.01125961      -0.00479409      -0.42614619      -0.06926527       0.48723242      -0.42651170      -0.05800566       0.49202651
O       16.06749800      14.05405100      11.98644200       0.00145309      -0.00951618      -0.00126266      -1.12399120      -2.08578795       0.71636642      -1.12544429      -2.07627177       0.71762908
H       15.82121400      13.05192500      11.91924500      -0.02211243      -0.01125732      -0.00044725       0.64259159       2.76218256       0.04215591       0.66470402       2.77343988       0.04260316
H       15.52216100      14.33027700      12.78112700       0.00825388      -0.00256074       0.00019435       0.85475940      -0.26067183      -1.05946263       0.84650552      -0.25811109      -1.05965698
27
Properties=species:S:1:pos:R:3:REF_forces:R:3:DFT_forces:R:3:FOUNDATION_forces:R:3 REF_energy=0.01662553951246082 charge=0 spin=1 external_field="0.0 0.0 0.0" config_type=ORCA_DFT source_file=C_DFTprod_cutcluster_0031.out orca_step=0 DFT_energy=-18719.641577585488 FOUNDATION_energy=-18719.658203125 pbc="F F F"
O       13.25589600      14.67050900      11.15808600      -0.00908996       0.00007543       0.01342773       1.22796570      -0.84067675      -1.07357336       1.23705566      -0.84075218      -1.08700109
H       14.09605400      14.38249100      11.57302600       0.00529846       0.00082234      -0.00585330      -0.70905153       0.28297034       0.13128522      -0.71434999       0.28214800       0.13713852
H       13.48009200      14.41411100      10.22511800       0.00486545      -0.00578327      -0.00630448      -0.68276282       0.39560904       0.92555597      -0.68762827       0.40139231       0.93186045
O       10.37675300      12.24560000       8.82000200       0.00199685       0.01000514      -0.01636567       0.37897894      -0.79308686      -0.63296857       0.37698209      -0.80309200      -0.61660290
H       10.17766500      12.82246100       9.55381000      -0.00660454      -0.00949028       0.00329860      -0.49386324       0.57259557       0.23145695      -0.48725870       0.58208585       0.22815835
H        9.65443800      12.25661700       8.18036000       0.00163839       0.00249611       0.00371795       0.06071866       0.27618386       0.40446659       0.05908027       0.27368775       0.40074864
O        9.52335200      13.96892300      11.18206700       0.00275939       0.00360746       0.00811799       0.93966346       2.39228029      -0.34700917       0.93690407       2.38867283      -0.35512716
H        9.50546600      13.20320000      11.70418200       0.00628091      -0.00189188      -0.00938906      -0.17418115      -1.95138898       1.18615447      -0.18046206      -1.94949710       1.19554353
H       10.09648100      14.57721900      11.71229700      -0.00799234      -0.00030505       0.00335432      -0.68739636      -0.54455357      -0.88253688      -0.67940402      -0.54424852      -0.88589120
O       14.08609900      11.23451500       9.91797500       0.00021330      -0.00055035       0.03234839      -0.90291807       1.05848412       0.63335120      -0.90313137       1.05903447       0.60100281
H       14.40985800      10.35163000       9.82432900      -0.00056982       0.01135771      -0.00465781       0.28351706      -0.82107039      -0.24996812       0.28408688      -0.83242810      -0.24531031
H       13.22389600      11.13583800      10.37825300      -0.00173642      -0.00551579      -0.01913125       0.49966673      -0.09805401      -0.50603870       0.50140315      -0.09253822      -0.48690745
O       16.27217200      10.55015200      11.64757500      -0.00153755      -0.00379727       0.00653678      -0.91075330      -0.60666958       0.40072569      -0.90921575      -0.60287231       0.39418891
H       15.42562400      11.01706200      11.77174600       0.00292374       0.00083952      -0.01123593       0.50844957       0.23329534      -0.35663564       0.50552583       0.23245582      -0.34539971
H       15.93516000       9.63579600      11.63687600       0.00447552       0.00022985      -0.00401657       0.58492498       0.27102350      -0.00475423       0.58044946       0.27079365      -0.00073766
O       11.62128800      12.37549100      14.90571700       0.00763273      -0.01106417      -0.00103900       0.30258333      -2.48877251       1.02858260       0.29495060      -2.47770834       1.02962160
H       11.42247100      11.62340000      15.58681200      -0.00217677       0.01043997       0.00336028       0.16263782       2.69336019      -1.79504918       0.16481459       2.68292022      -1.79840946
H       11.12697400      13.18360900      15.03361500      -0.00599227      -0.00404176      -0.00687708      -0.42063127      -0.16972738       0.69980769      -0.41463900      -0.16568562       0.70668477
O       11.45224700       9.90019600      10.40649900       0.01151282       0.00398315       0.01979124       0.09293423      -0.56984459       0.19814079       0.08142141      -0.57382774       0.17834955
H       11.22774600      10.50830000      11.12324300      -0.01132457       0.00230656      -0.00592648      -0.01688984       0.21343685      -0.28654962      -0.00556527       0.21113029      -0.28062314
H       11.03033200      10.23673700       9.60879700       0.00050026      -0.01524721       0.00263285      -0.02657914       0.27732934       0.06695030      -0.02707940       0.29257655       0.06431745
O       12.00000000      12.00000000      12.00000000       0.00121702      -0.01502077      -0.00051680      -0.16691351       2.24996288       2.35859642      -0.16813053       2.26498365       2.35911322
H       11.98512700      12.94926800      11.65424100       0.00455386      -0.00220837      -0.01921877       0.35989816      -1.65743329       0.53093264       0.35534430      -1.65522492       0.55015141
H       12.03646500      12.12234100      13.03313900       0.00182163       0.02076006       0.02755027      -0.15863564      -0.36623809      -2.54628820      -0.16045727      -0.38699815      -2.57383847
O       12.83419800       7.49394300      11.64400900      -0.00815671      -0.00677977       0.00568030       0.30211256      -2.44657741      -1.32184424       0.31026927      -2.43979764      -1.32752454
H       12.65800400       8.39801000      11.59589600      -0.00974337       0.01401932      -0.01578039      -0.58326117       2.28826291       0.12105557      -0.57351780       2.27424359       0.13683596
H       13.08990100       7.20239900      12.49938100       0.00723356       0.00075339      -0.00350401       0.22978583       0.14929919       1.08615377       0.22255227       0.14854580       1.08965778
27
Properties=species:S:1:pos:R:3:REF_forces:R:3:DFT_forces:R:3:FOUNDATION_forces:R:3 REF_energy=-0.034715408091869904 charge=0 spin=1 external_field="0.0 0.0 0.0" config_type=ORCA_DFT source_file=C_DFTprod_cutcluster_0032.out orca_step=0 DFT_energy=-18720.515184158092 FOUNDATION_energy=-18720.48046875 pbc="F F F"
O       10.78146800       8.41322200      12.47065100       0.00943505       0.00244285       0.00464706       0.00925546       0.57462509      -0.07287350      -0.00017959       0.57218224      -0.07752056
H       10.64248500       9.38077100      12.46886400      -0.01168551       0.01367024      -0.00446925       0.02737161      -0.55786171      -0.08607838       0.03905712      -0.57153195      -0.08160913
H       11.62523000       8.29314200      12.02077300       0.00232224      -0.00402582      -0.00270326      -0.02116615       0.09351000       0.14566617      -0.02348839       0.09753582       0.14836943
O       14.57733800      12.39120200       9.61923000       0.00304329      -0.00325474       0.00717492       0.38617155      -0.68524548      -0.28199260       0.38312826      -0.68199074      -0.28916752
H       14.52994000      13.32790900       9.45404800      -0.00425065       0.00584356      -0.00144383      -0.15016318       0.32673566       0.08909331      -0.14591253       0.32089210       0.09053714
H       14.17274500      12.19164300      10.46897200       0.00187211      -0.00395117      -0.00676610      -0.31475468       0.35424467       0.16538843      -0.31662679       0.35819584       0.17215453
O       11.44610300      13.63238900       8.96500700       0.00504531       0.00550119       0.01124201       1.72249295      -0.21003678       0.39631964       1.71744764      -0.21553797       0.38507763
H       10.59934800      13.71808000       9.37541100      -0.00996232       0.00805985      -0.00989423      -1.03190446       0.24338471       0.36977269      -1.02194214       0.23532486       0.37966692
H       12.06070800      13.58244300       9.73550700      -0.00238346      -0.00808222       0.00506908      -0.70418536      -0.00145283      -0.87682980      -0.70180190       0.00662939      -0.88189888
O       12.94979300      14.94588400      11.64122000       0.00621175      -0.00042388       0.00257688       1.18261539       0.67109886      -1.28775234       1.17640364       0.67152274      -1.29032922
H       13.15365700      14.16150800      12.16945500      -0.00394887      -0.00797570       0.01594842       0.23515239      -0.34768367      -0.29235476       0.23910126      -0.33970797      -0.30830318
H       13.65022100      15.07440100      10.92999000      -0.01743408       0.00067702      -0.00801498      -1.37119194      -0.41095251       1.66548305      -1.35375786      -0.41162953       1.67349803
O       12.90319900      12.22994000      12.17902600       0.00551898       0.00220562      -0.04082224       1.24787540       2.11644913      -0.45064536       1.24235642       2.11424351      -0.40982312
H       13.31055100      11.51044400      12.59296600       0.01049876       0.01178150       0.03440244       0.85454708      -1.64232965       1.07609613       0.84404832      -1.65411115       1.04169369
H       12.00000000      12.00000000      12.00000000      -0.01071513      -0.00001998      -0.00884543      -1.69669414      -0.49069996      -0.56380532      -1.68597901      -0.49067998      -0.55495989
O       10.46617800      11.71184800      11.35918700      -0.01051296      -0.00525758      -0.01545921       0.33447422      -1.65564987      -0.50854871       0.34498718      -1.65039229      -0.49308950
H       10.03661500      12.56234500      11.18486300      -0.00583956      -0.01200584      -0.00565758      -0.16889362       0.28778272      -0.36560961      -0.16305406       0.29978856      -0.35995203
H       10.54126200      11.18091500      10.52217200      -0.00065802       0.00974730       0.01728849      -0.05058512       0.84194729       0.94465165      -0.04992710       0.83219999       0.92736316
O       10.56333100      16.21598500      11.49074200       0.02333360      -0.03430806       0.00693518      -0.66217060       0.68154396       0.07665935      -0.68550420       0.71585202       0.06972417
H       11.37144400      15.80987500      11.80147500      -0.00882120       0.00159573       0.00135140       0.99145751      -0.21108789      -0.02433822       1.00027871      -0.21268362      -0.02568962
H       10.66594700      17.16869400      11.59062300      -0.01085295       0.01236854      -0.00225124      -0.13546383      -0.21620922       0.00160478      -0.12461088      -0.22857776       0.00385602
O        9.27302400      14.02975100      10.91067700       0.02002068      -0.02279305      -0.01164893       0.24265708       1.22956312       0.84816524       0.22263640       1.25235617       0.85981417
H        9.64080400      14.88857000      11.31118300       0.00365345       0.00516012      -0.00627955      -0.39567609      -0.93010667      -0.96350088      -0.39932954      -0.93526679      -0.95722133
H        8.52070300      13.84490300      11.47432700       0.00946755       0.02240647       0.01481512      -0.41766237      -0.17465191      -0.03151715      -0.42712992      -0.19705838      -0.04633227
O       11.54906300       9.48843800       9.65747900      -0.01478534      -0.00536112       0.00798010      -0.48837393      -0.95112024       0.67781108      -0.47358859      -0.94575912       0.66983098
H       12.05009400       9.39504000       8.85729100       0.01157223       0.02212727      -0.01064475       0.51695226       0.34988737      -0.73731418       0.50538003       0.32776010      -0.72666943
H       11.28360500       8.56437700       9.83327400      -0.00014460      -0.01612804       0.00546950      -0.14213759       0.71431597       0.08644929      -0.14199299       0.73044401       0.08097979
27
Properties=species:S:1:pos:R:3:REF_forces:R:3:DFT_forces:R:3:FOUNDATION_forces:R:3 REF_energy=0.0025431135582039133 charge=0 spin=1 external_field="0.0 0.0 0.0" config_type=ORCA_DFT source_file=C_DFTprod_cutcluster_0033.out orca_step=0 DFT_energy=-18719.56776938644 FOUNDATION_energy=-18719.5703125 pbc="F F F"
O       14.40016400      11.89338700       7.97152300       0.02854732       0.02186249      -0.00679691       0.31924892       0.94530235       0.64544855       0.29070160       0.92343986       0.65224546
H       14.83658300      12.68753800       8.35333200       0.01756475       0.02955259      -0.02214390      -0.55054697      -0.96534847      -0.40771955      -0.56811172      -0.99490106      -0.38557565
H       13.87911900      11.44247800       8.68617400      -0.05307230      -0.04961876       0.00659958       0.70641044       0.17479204      -0.76141724       0.75948274       0.22441080      -0.76801682
O       11.27286100      11.66134400      12.56665100      -0.05562335      -0.01749606       0.00495834       0.54088718       0.10243620      -0.27567591       0.59651053       0.11993226      -0.28063425
H       12.00000000      12.00000000      12.00000000      -0.00764524       0.00551939       0.00077928      -0.61187755      -0.49503052       0.01636271      -0.60423231      -0.50054991       0.01558343
H       11.17325600      12.38223200      13.18851600       0.01387016       0.00543141      -0.00552767      -0.22474482       0.37516090       0.51331533      -0.23861498       0.36972949       0.51884300
O       14.85508800      10.93697600      12.25066400      -0.04065400       0.03987500       0.04284636       1.56141538      -1.13367465       0.00655852       1.60206938      -1.17354965      -0.03628784
H       15.27643200      11.78501500      12.27351800       0.02512672       0.00727127      -0.01552450       0.29278907       1.07290755       0.34686894       0.26766235       1.06563628       0.36239344
H       15.66638000      10.35999100      12.33496900      -0.00580817      -0.00920660      -0.01672262      -1.49299997       0.37395366      -0.29361013      -1.48719180       0.38316026      -0.27688751
O       11.11630400      11.53802600       9.11243600       0.00350297       0.00191824      -0.01345686      -0.54498732      -0.07851543       2.76096936      -0.54849029      -0.08043367       2.77442622
H       10.44664800      11.19025900       9.79918300      -0.00233019       0.01744588       0.01012697       0.66895013       0.59185179      -1.53059886       0.67128032       0.57440591      -1.54072583
H       11.75104800      12.01403900       9.74704600       0.03316605       0.02521202       0.02949835      -1.43365741      -1.04072335      -1.74303447      -1.46682346      -1.06593537      -1.77253282
O       12.66184400       9.27076700      13.20057200      -0.02889756       0.00078976      -0.01174327       0.61114767      -0.39683870      -0.14064758       0.64004523      -0.39762846      -0.12890431
H       12.20687000      10.02609500      13.55414800       0.02395153      -0.01273888       0.00504905      -0.77861756       0.43179387       0.30048084      -0.80256909       0.44453275       0.29543179
H       13.33087200       9.73397900      12.68373100       0.00616606      -0.00866743      -0.00070691       0.05806117      -0.37633204      -0.14147003       0.05189511      -0.36766461      -0.14076312
O       13.31888500       9.90374200       9.34628000       0.01612622      -0.00810138      -0.01614221      -0.72597402      -0.09774003       0.44069467      -0.74210024      -0.08963865       0.45683688
H       12.40148900      10.26131800       9.42915200       0.02423108      -0.03827731       0.00610168       0.32812971      -0.07224291      -0.14595048       0.30389863      -0.03396560      -0.15205216
H       13.22400900       9.32930300       8.58691000      -0.01307537       0.01432546       0.00702190       0.25268598      -0.27217011      -0.28361440       0.26576135      -0.28649557      -0.29063630
O        9.11190800      10.80954200      11.19886800      -0.01131298       0.01172936       0.00406899       0.29371889       0.53941435      -0.00257964       0.30503187       0.52768499      -0.00664863
H        9.79473100      11.07022100      11.86525800       0.03545754      -0.00980475      -0.00532597      -0.40910805      -0.45299658      -0.39547395      -0.44456559      -0.44319183      -0.39014798
H        8.79055000       9.92924100      11.39195300       0.00683328      -0.00130484       0.01042370       0.14943721      -0.15645071       0.19934453       0.14260393      -0.15514587       0.18892083
O       11.89263600      13.83525000      14.04736800      -0.02129164      -0.01542398       0.00278302       0.96846095      -0.74251917      -0.76506929       0.98975259      -0.72709519      -0.76785231
H       12.67200900      14.16110000      13.56346200      -0.00274364      -0.00434474      -0.00320175      -0.57991365       0.02079205       0.46293390      -0.57717001       0.02513679       0.46613565
H       11.51102500      14.55341200      14.51948200       0.01693462       0.01421717       0.00293866      -0.34587027       1.01983288       0.51236233      -0.36280489       1.00561571       0.50942367
O       13.04478000      12.30650800      10.56208300      -0.01803334       0.00413130       0.02048865       2.81466310       0.49517332       1.70530286       2.83269644       0.49104202       1.68481421
H       13.90636700      11.89724700      10.94657300       0.00774103      -0.01307140      -0.00090963      -1.95765537       0.44389637      -1.10750467      -1.96539640       0.45696777      -1.10659504
H       13.23942400      13.21654700      10.28609000       0.00126902      -0.01122478      -0.03548311       0.08994717      -0.30672461       0.08372346       0.08867815      -0.29549983       0.11920657
27
Properties=species:S:1:pos:R:3:REF_forces:R:3:DFT_forces:R:3:FOUNDATION_forces:R:3 REF_energy=0.0038568155869143084 charge=0 spin=1 external_field="0.0 0.0 0.0" config_type=ORCA_DFT source_file=C_DFTprod_cutcluster_0034.out orca_step=0 DFT_energy=-18720.210986934413 FOUNDATION_energy=-18720.21484375 pbc="F F F"
O       14.24308000      14.13172900      11.93974000      -0.01176427       0.00397962      -0.00352871       0.07002724      -0.25166464       0.77725149       0.08179151      -0.25564426       0.78078020
H       14.28436600      14.30269400      12.90036800       0.01413157      -0.00865945       0.01419350      -0.05115776       0.01607701      -0.76249490      -0.06528933       0.02473646      -0.77668840
H       13.72606600      14.82805400      11.52100900      -0.00659393       0.00606694      -0.01113561      -0.20073565       0.21418463      -0.19149439      -0.19414172       0.20811769      -0.18035878
O       13.25026000      12.53627400       8.72341800       0.02476971      -0.00617222      -0.02462967       0.53523152      -0.38668952       0.22997866       0.51046181      -0.38051730       0.25460833
H       13.98039800      12.04182400       9.18851400      -0.01466214       0.00544484       0.00130919      -0.86391109       0.58790536      -0.49337247      -0.84924895       0.58246052      -0.49468166
H       12.63049200      11.88603000       8.37760500       0.00930904      -0.00006280       0.01703249       0.06988470      -0.07458956       0.08476270       0.06057566      -0.07452676       0.06773021
O       12.13016800      14.84185900       9.73875100      -0.01581753       0.00087423      -0.02704906       1.76776432       0.13480387      -0.09233295       1.78358185       0.13392964      -0.06528389
H       12.49332900      13.96496400       9.47194900       0.00240491       0.02568404      -0.00163845      -0.37446048       0.23453013      -0.12300503      -0.37686539       0.20884609      -0.12136658
H       11.24651300      14.74320500      10.03073700       0.01013306      -0.00138429       0.02876666      -1.26590058      -0.35774800       0.35593414      -1.27603364      -0.35636371       0.32716748
O       13.32578200       9.61845300      10.98200900       0.00055258      -0.00726295      -0.00559578       1.38223879       1.09661662      -1.21430419       1.38168621       1.10387957      -1.20870841
H       12.69616300      10.01100500      11.57230600       0.02291397       0.00758652       0.00390204      -0.55671664       0.25796009       0.45588311      -0.57963061       0.25037357       0.45198107
H       13.81682600      10.44890400      10.66274200      -0.03120702      -0.02037682       0.00394508      -0.92129760      -1.75899758       0.85435965      -0.89009058      -1.73862076       0.85041457
O        9.32758800      13.81697600      13.58954000       0.00148963       0.00631406       0.01129532       1.54345988       3.80414035      -1.00269925       1.54197025       3.79782629      -1.01399457
H       10.21365500      14.33323400      13.51440400      -0.01156304      -0.00675730      -0.00933731      -2.36900733      -1.69145290       0.29998189      -2.35744429      -1.68469560       0.30931920
H        9.53648800      12.95181000      13.83248900       0.00489317       0.00141659       0.00321378       0.86516003      -2.18308005       0.67145290       0.86026686      -2.18449664       0.66823912
O       14.96409400      11.81296200      10.59013300      -0.01831758      -0.00352069       0.00802329       0.23197693       1.39858047       0.57822659       0.25029451       1.40210116       0.57020330
H       15.82244900      11.40603300      10.73192400       0.02013489       0.01769739      -0.00884599       0.10828752       0.15902799       0.09696978       0.08815263       0.14133060       0.10581577
H       14.92591800      12.70987900      11.05921900       0.00127268      -0.01061132      -0.00209931       0.11823517      -1.46167555      -0.59437415       0.11696249      -1.45106423      -0.59227484
O       11.83565300      10.50908100      14.26986900      -0.00236910      -0.00818548       0.00766235       1.28105718      -0.87110421      -1.04614848       1.28342628      -0.86291873      -1.05381083
H       12.04790200      11.01908000      13.44096000      -0.00463570       0.02141371      -0.00674295      -0.40983454      -0.30244804       0.94026679      -0.40519884      -0.32386175       0.94700974
H       12.42485000       9.71186200      14.17915900      -0.00946536       0.01102109       0.00076563      -0.94309279       1.12627692       0.31992645      -0.93362743       1.11525583       0.31916082
O       12.00000000      12.00000000      12.00000000       0.01889013      -0.04972844       0.02200199       0.33827909      -0.35276731       1.10710646       0.31938896      -0.30303887       1.08510447
H       12.57634700      12.75355500      11.84514800      -0.03036369      -0.01722518      -0.01600338      -0.18655628       0.12222419      -0.54933531      -0.15619259       0.13944937      -0.53333193
H       11.28394400      11.87522500      11.37666600       0.02455217       0.03216371       0.00294913      -0.17977926       0.55749008      -0.82277678      -0.20433143       0.52532637      -0.82572591
O        9.86540100      11.59757600      10.03193300      -0.00332660      -0.00349045      -0.00685353      -1.59431476      -0.46942958       1.36545663      -1.59098816      -0.46593913       1.37231016
H        9.27151200      11.04631500      10.64908000       0.00392029       0.00275453      -0.00902861       1.22464034       1.30011960      -1.50072068       1.22072005       1.29736507      -1.49169207
H        9.35025300      12.41525700       9.85031900       0.00071792       0.00101993       0.00742767       0.38052217      -0.84829035       0.25550134       0.37980425      -0.84931028       0.24807367
27
Properties=species:S:1:pos:R:3:REF_forces:R:3:DFT_forces:R:3:FOUNDATION_forces:R:3 REF_energy=-0.009928523239068454 charge=0 spin=1 external_field="0.0 0.0 0.0" config_type=ORCA_DFT source_file=C_DFTprod_cutcluster_0035.out orca_step=0 DFT_energy=-18720.38297539824 FOUNDATION_energy=-18720.373046875 pbc="F F F"
O       14.63080000      10.00107800      13.92270300      -0.00982197       0.01000865      -0.00058921      -0.16243768       0.56191202       0.61091910      -0.15261571       0.55190337       0.61150831
H       14.36401200       9.74518200      13.01947100      -0.00127381      -0.01339413      -0.01108049       0.21773924      -0.20342169       0.28978623       0.21901305      -0.19002756       0.30086672
H       14.24864700      10.89320100      13.98627100      -0.00661541       0.00515064      -0.00932283       0.32615181      -0.35687742       0.33569729       0.33276722      -0.36202806       0.34502012
O       14.02987500      13.83939200      12.55418100      -0.00488813       0.00283690      -0.02223848      -0.89793296       1.60119529      -0.13312407      -0.89304483       1.59835839      -0.11088559
H       14.19109500      13.72728100      13.50797200       0.00520547      -0.01285699       0.01721165       0.22930946      -0.44877529       0.13703189       0.22410399      -0.43591830       0.11982024
H       13.67623700      14.76256200      12.50740800       0.00126182      -0.00178037       0.00825325       0.54047256      -1.07094322      -0.20015397       0.53921074      -1.06916285      -0.20840722
O       12.00000000      12.00000000      12.00000000      -0.00097374      -0.00038864      -0.00456339       0.33857333       0.15252135      -0.03939938       0.33954707       0.15290999      -0.03483599
H       11.42156400      12.42831500      11.37284500      -0.00381944       0.00295826      -0.00275063      -0.41346690       0.02084723      -0.48534718      -0.40964746       0.01788897      -0.48259655
H       12.59360000      12.72854900      12.26864400       0.00612123      -0.00570325       0.01203910       0.51754583      -0.11740481       0.10348712       0.51142460      -0.11170156       0.09144802
O       10.13578600      10.42711300      16.44351500      -0.00411223      -0.00466679      -0.01409346      -0.33956562       0.95039226       2.27324957      -0.33545339       0.95505905       2.28734303
H       10.23061300      10.39899300      15.50996500       0.00870585       0.00431073      -0.00127813       0.37281996      -0.87892556      -1.68520948       0.36411411      -0.88323629      -1.68393135
H       10.46547600       9.67141500      16.94852200      -0.00112535       0.00097243       0.01140861       0.04951755       0.15780954      -0.94383152       0.05064290       0.15683711      -0.95524013
O       10.09897000      10.97500500      13.55418900       0.00715072      -0.00839595       0.00486071      -4.40540068      -0.03774699       2.57360823      -4.41255140      -0.02935104       2.56874752
H        9.44014900      11.72871400      13.54274800      -0.00248483      -0.00205216      -0.00978473       1.03941676      -1.38147471      -0.01072022       1.04190159      -1.37942255      -0.00093549
H       10.77384700      11.29689300      13.04133200       0.00082193       0.00200554       0.01647787       3.13361536       1.19907292      -2.07016845       3.13279343       1.19706738      -2.08664632
O        9.74018200      14.21288600      13.18942100       0.00212830       0.01557487       0.01631172      -1.64862603      -0.25395060       1.56924815      -1.65075433      -0.26952547       1.55293643
H       10.60324800      14.06215000      13.55080600      -0.00548883      -0.00367400      -0.00792645       1.15256886      -0.18167005       0.13645720       1.15805769      -0.17799605       0.14438365
H        9.20871400      14.10094800      14.03189500      -0.00099386       0.00339502      -0.01159518       0.53401272       0.35391644      -1.57647341       0.53500658       0.35052142      -1.56487823
O       13.97820600       9.78610600      11.50649900       0.01410999       0.00090974       0.00081352       0.46980553       1.82233887      -2.07958146       0.45569554       1.82142913      -2.08039498
H       13.23553300      10.44563600      11.49961200       0.00812292      -0.00248831       0.00568610       0.60672074      -0.64845520       0.03575644       0.59859782      -0.64596689       0.03007034
H       14.73107300      10.30650700      11.07544900      -0.01005076      -0.00464212       0.00072935      -1.48392783      -1.15461587       0.88586548      -1.47387707      -1.14997375       0.88513613
O       11.63456000      13.11929900      15.97020600      -0.01153221      -0.01086436      -0.00567007      -0.01257902      -0.33886926      -0.35702670      -0.00104681      -0.32800490      -0.35135663
H       11.15338700      12.27828800      16.09745000       0.00579529      -0.00935049       0.00352238       0.12618255       0.10548425       0.13995883       0.12038726       0.11483474       0.13643645
H       11.22439600      13.75256800      16.55633400       0.00821959       0.00890835       0.00232345      -0.14008831       0.12046668       0.29970107      -0.14830790       0.11155833       0.29737762
O       14.26892600      12.74843500      14.95805700      -0.00206809       0.03406668       0.00416122       0.47231991       0.18799450       1.45675908       0.47438800       0.15392782       1.45259786
H       13.53645600      12.92366900      15.57195700      -0.00115865       0.00093667       0.00396194      -0.71460455      -0.02098313      -0.43374781      -0.71344590      -0.02191980      -0.43770975
H       14.98319700      12.65085300      15.61602700      -0.00123666      -0.01177724      -0.00686781       0.09185750      -0.13983748      -0.83274202       0.09309416      -0.12806024      -0.82587421
27
Properties=species:S:1:pos:R:3:REF_forces:R:3:DFT_forces:R:3:FOUNDATION_forces:R:3 REF_energy=0.016641763104416896 charge=0 spin=1 external_field="0.0 0.0 0.0" config_type=ORCA_DFT source_file=C_DFTprod_cutcluster_0036.out orca_step=0 DFT_energy=-18719.547811361896 FOUNDATION_energy=-18719.564453125 pbc="F F F"
O       14.85117800      13.23486200       9.06433200       0.00051945       0.02369557      -0.01715247      -1.57091314       0.66020237       0.44571717      -1.57143259       0.63650680       0.46286964
H       13.88334700      13.42528300       9.11377000       0.00699732      -0.00824540       0.00936705       0.75949452      -0.78573649      -0.46947622       0.75249720      -0.77749109      -0.47884327
H       15.11706200      13.96368900       9.63135000      -0.00456612      -0.01504522      -0.00074337       0.81417639       0.06007229       0.07436274       0.81874251       0.07511751       0.07510611
O       14.82268200      11.54802600      13.21587200       0.01095150       0.01837115      -0.00271928       2.35703967       0.95708124      -2.72913015       2.34608817       0.93871009      -2.72641087
H       15.53256600      11.55505000      12.43263200       0.00741793      -0.01053312       0.00332874      -2.67294882      -0.45684084       2.63033289      -2.68036675      -0.44630772       2.62700415
H       14.27582200      10.76229000      13.20485100      -0.00277308       0.00614606       0.00048479       0.01731499      -0.51286174      -0.20853350       0.02008807      -0.51900780      -0.20901829
O       12.15124700      12.89091000      12.25585100      -0.00505983      -0.00715264       0.01831010       0.24314364       1.58674435       0.36323011       0.24820347       1.59389699       0.34492001
H       12.00000000      12.00000000      12.00000000      -0.00414726       0.01216891      -0.00253627      -0.03994950      -1.27093742      -0.41312108      -0.03580224      -1.28310633      -0.41058481
H       12.95077400      12.89351400      12.80795300      -0.00281449      -0.00079071       0.00311074      -0.16255847      -0.31045821      -0.10014504      -0.15974398      -0.30966750      -0.10325578
O       12.77853400       9.76163100      15.09964200       0.00403274       0.00263152       0.00254422      -0.83525424       0.10972384      -0.51725036      -0.83928698       0.10709232      -0.51979458
H       12.42919800       8.92339300      14.76897600      -0.00273909      -0.00862926      -0.00138136       0.25243000      -0.02296669       0.16855706       0.25516909      -0.01433743       0.16993842
H       11.97815000      10.32780300      15.07911100      -0.01299880      -0.00052951      -0.00010922       0.67163904       0.16711961       0.23943019       0.68463784       0.16764912       0.23953941
O       11.24244200      12.64875800      15.12064800       0.00190184       0.00498093      -0.01511508      -1.09555187      -0.57216393      -1.05200010      -1.09745371      -0.57714486      -1.03688502
H       11.97084500      13.25634900      15.21541900       0.01825231       0.00543697       0.00836264       0.80206412       0.45938505       0.14304889       0.78381181       0.45394808       0.13468625
H       10.93233400      12.80496000      14.19823500       0.00448275      -0.00953381      -0.00595715       0.40450141      -0.13528750       0.97257600       0.40001866      -0.12575369       0.97853315
O       13.12103300       9.58585100      10.43970300       0.00045995      -0.00924860      -0.00289257       0.28021787       1.06474604      -0.40454902       0.27975792       1.07399464      -0.40165645
H       14.02516500       9.68719200      10.12841500      -0.00457190      -0.00020200      -0.00089161       0.04150558       0.42173639      -0.32121812       0.04607748       0.42193839      -0.32032651
H       13.18740500       8.76057100      10.87758000       0.00150267       0.00494717       0.00271004      -0.33012869      -1.42024757       0.78614699      -0.33163136      -1.42519474       0.78343695
O       15.58059600      12.31418700      15.69748200       0.00550357      -0.00949674       0.01462746      -0.75610288      -0.38883182      -1.16395366      -0.76160645      -0.37933508      -1.17858112
H       15.26027600      11.56159000      16.23063800       0.00472377       0.01137508       0.00306848       0.10167408       0.58063258      -0.53293404       0.09695031       0.56925750      -0.53600252
H       15.18454500      12.18073400      14.76984300      -0.00413481      -0.00999825      -0.01167200       0.83732244      -0.21186005       2.03726151       0.84145725      -0.20186180       2.04893351
O       12.40659300      15.99211000      12.25830600       0.00593955       0.00796725      -0.02041883       2.26116235      -0.90338622      -2.07676143       2.25522280      -0.91135347      -2.05634260
H       11.90373300      15.20261700      11.99172000      -0.00177012      -0.00181867       0.00208051      -0.11413781       0.17070563       0.13994793      -0.11236769       0.17252430       0.13786742
H       13.21634300      15.90298600      11.61443700      -0.00813077       0.00175555       0.00921411      -2.22579358       0.50986697       1.92693634      -2.21766281       0.50811142       1.91772223
O       13.51792900      14.47726500      14.63215900       0.00619721      -0.01772483       0.02871428      -0.29244280      -0.47503628       0.67770104      -0.29864001      -0.45731145       0.64898676
H       14.44461400      14.25298800      14.46077100      -0.01962869      -0.00367039      -0.00332781      -0.54887740       0.29246578      -0.27525302      -0.52924871       0.29613617      -0.27192521
H       13.01162200      14.81119600      13.88101100      -0.00554748       0.01314292      -0.02100687       0.80097310       0.42613266      -0.34092327       0.80652058       0.41298974      -0.31991640
27
Properties=species:S:1:pos:R:3:REF_forces:R:3:DFT_forces:R:3:FOUNDATION_forces:R:3 REF_energy=0.006883227597427322 charge=0 spin=1 external_field="0.0 0.0 0.0" config_type=ORCA_DFT source_file=C_DFTprod_cutcluster_0037.out orca_step=0 DFT_energy=-18719.522413647403 FOUNDATION_energy=-18719.529296875 pbc="F F F"
O       11.51521000       9.05664200      10.39875000       0.02001116      -0.02265417       0.01459917      -0.60707381       0.77384246      -0.76897505      -0.62708497       0.79649663      -0.78357422
H       11.13893000       9.12848000       9.49023000      -0.01628220       0.00300648      -0.01338015       0.43090057      -0.11047620       0.91342380       0.44718277      -0.11348268       0.92680395
H       11.47070100       9.98405000      10.71015300       0.00541255       0.03909363       0.01003755       0.20939796      -0.63194255      -0.30203872       0.20398541      -0.67103618      -0.31207627
O       11.17864100      11.85666900       8.41794900      -0.01869535      -0.03225473      -0.00055433      -0.03252276       0.50285825       0.15431351      -0.01382741       0.53511298       0.15486784
H       11.39869500      12.01850000       9.37016100       0.00384942       0.01035956       0.00485341      -0.30452889       0.41697640      -1.28876288      -0.30837831       0.40661684      -1.29361629
H       10.95397500      12.70348500       7.96447700       0.00812282       0.00888280       0.01877271       0.31413396      -0.89245923       1.13560056       0.30601114      -0.90134203       1.11682785
O       11.33714200      14.79268900       9.84619000       0.00931485       0.01216673      -0.02466836       0.62768002       1.53093063       0.08117045       0.61836517       1.51876390       0.10583881
H       11.64451900      15.71128100       9.61126100      -0.00529190       0.00534701       0.00255998      -0.55405082      -1.38709915       0.04118532      -0.54875892      -1.39244616       0.03862534
H       11.52010100      14.83504100      10.81025800      -0.00168469      -0.01954504      -0.01766582      -0.22834694      -0.05170941      -0.34235306      -0.22666225      -0.03216437      -0.32468724
O       11.87996200       9.74311400      13.55956500      -0.00316976      -0.00249410       0.00043426       0.14442803       1.38208365      -0.11614193       0.14759779       1.38457775      -0.11657619
H       11.17457100      10.13103200      12.98747400       0.00533569      -0.01168009      -0.01206541       1.00676668      -0.48033836       0.62518317       1.00143099      -0.46865827       0.63724858
H       12.53910100      10.46287000      13.75039600      -0.00091128      -0.01233264      -0.00901119      -1.19858246      -1.00574215      -0.39034162      -1.19767118      -0.99340951      -0.38133043
O       14.31246500      14.09509300      13.50802600       0.03862088       0.00011514      -0.00190024       2.10433476      -0.64690210      -1.41856210       2.06571388      -0.64701724      -1.41666186
H       14.30063100      13.12065100      13.65779800      -0.01553212      -0.00436337      -0.00357033       0.05630989       1.10251360      -0.20271103       0.07184201       1.10687697      -0.19914070
H       15.14017100      14.24154900      12.91493300      -0.01978141       0.00092786       0.01149047      -2.10536104      -0.41774932       1.53980685      -2.08557963      -0.41867718       1.52831638
O       12.02024900      15.57017100      12.41794000       0.01882502       0.01118290       0.01138164      -0.73000160      -0.96721185       0.71238209      -0.74882662      -0.97839475       0.70100045
H       12.89081400      15.20844200      12.60726500      -0.00486703      -0.00029688      -0.00904690       0.64799266       0.07495363       0.02019638       0.65285969       0.07525051       0.02924328
H       11.48878700      14.91518400      12.92560900      -0.00054024      -0.00778227       0.00875168       0.02078526       0.74863274      -0.52337534       0.02132550       0.75641501      -0.53212702
O       10.97060600      12.96900200      13.82256100      -0.03768414       0.00658950       0.00512635      -0.27325944      -0.19982091       1.47183429      -0.23557530      -0.20641041       1.46670794
H       10.37071500      12.28428900      14.19280000       0.01787318      -0.00236031       0.01493118       0.37437106       0.46998859      -0.56633421       0.35649788       0.47234890      -0.58126539
H       11.18529000      13.47145400      14.64296900      -0.00246680       0.01169681      -0.00921700       0.02084501      -0.35509071      -0.86803380       0.02331181      -0.36678752      -0.85881680
O       12.28101700      11.88055400      11.10095200       0.00657097       0.00965829      -0.01314916       1.82319680      -0.78758948      -1.45332970       1.81662583      -0.79724777      -1.44018054
H       12.00000000      12.00000000      12.00000000       0.01628014      -0.01552800      -0.00673424       0.34071567       0.15781602       0.87045707       0.32443553       0.17334402       0.87719131
H       13.21945500      11.50174100      10.99674700      -0.01263916       0.00268791       0.00654732      -2.20181429       0.85756967       0.68084036      -2.18917513       0.85488176       0.67429304
O       14.02463600      13.77268100       9.31079400      -0.03365174       0.01094047       0.01028171       3.50027522      -0.16320125       0.66850868       3.53392696      -0.17414172       0.65822697
H       13.64390800      13.80082500       8.47386000       0.02058661      -0.01095191       0.00054873      -1.12722313       0.01078650      -2.12827765      -1.14780974       0.02173841      -2.12882638
H       13.33172000      13.77265000       9.91372200       0.00239463       0.00958847       0.00064633      -2.25936823       0.06838055       1.45433459      -2.26176286       0.05879208       1.45368826
27
Properties=species:S:1:pos:R:3:REF_forces:R:3:DFT_forces:R:3:FOUNDATION_forces:R:3 REF_energy=0.009560897982737515 charge=0 spin=1 external_field="0.0 0.0 0.0" config_type=ORCA_DFT source_file=C_DFTprod_cutcluster_0038.out orca_step=0 DFT_energy=-18719.828329727017 FOUNDATION_energy=-18719.837890625 pbc="F F F"
O        7.95236200      10.32585100      13.66615100      -0.00359316      -0.00370268       0.01224442      -0.97355451       1.03339966       0.83056100      -0.96996135       1.03710234       0.81831658
H        7.40909500       9.68852800      14.15784000       0.00629831       0.00547317      -0.00470353       0.14517612       0.20114667      -0.24202567       0.13887781       0.19567350      -0.23732214
H        7.77374100      11.19322500      14.11896200      -0.00032229      -0.00451030      -0.00678217       0.20523169      -1.16131200      -0.72706931       0.20555398      -1.15680170      -0.72028714
O       10.29843600      14.27208600      13.76686800       0.00314160      -0.00588435       0.00308425       0.42208739      -1.29542369      -0.47053855       0.41894579      -1.28953934      -0.47362280
H       11.20644700      14.62434000      13.72669500      -0.00767957      -0.00097870       0.00316987      -0.26434516       0.13936661       0.01360772      -0.25666559       0.14034531       0.01043785
H       10.45212800      13.37372500      13.37164500      -0.00105012       0.00001365      -0.00250028      -0.20436934       1.15615314       0.58135028      -0.20331922       1.15613949       0.58385056
O       14.18417300      13.90197800      16.76578100      -0.02298402      -0.01190175       0.01035248       0.87820221      -0.99681117       0.60679458       0.90118623      -0.98490942       0.59644210
H       13.27253200      13.76331800      16.58106200       0.00483531       0.01545327      -0.00875031      -1.44909411       0.43830787      -0.65154438      -1.45392942       0.42285460      -0.64279407
H       14.34884800      13.05684200      17.22407500       0.01422761       0.00174655      -0.00438199       0.59141646       0.52162828      -0.07084218       0.57718885       0.51988173      -0.06646019
O       12.85680300      15.54275800      13.41104200       0.00876031       0.01337482       0.00123621      -3.50985422       2.95748974      -0.08783331      -3.51861453       2.94411492      -0.08906952
H       13.67918200      15.20096100      13.54366600       0.00052244      -0.00187483       0.00600031       3.65016062      -1.57960501       0.61146936       3.64963818      -1.57773018       0.60546905
H       12.89893700      16.48175400      13.72950200       0.00745273       0.00504386      -0.00454771      -0.07110443      -1.38043917      -0.47625797      -0.07855716      -1.38548303      -0.47171026
O       12.15048100      12.05232900      12.96945800      -0.00186658      -0.00568622       0.00142003      -0.98755694      -1.39888113      -0.92147028      -0.98569036      -1.39319491      -0.92289031
H       12.00000000      12.00000000      12.00000000      -0.00266658      -0.00970394      -0.00109839       0.46162124       0.37955450       0.69184190       0.46428782       0.38925844       0.69294029
H       11.65378600      11.22859400      13.23852900       0.01317359       0.01580029      -0.01254900       0.38190789       0.73106789       0.29348008       0.36873430       0.71526760       0.30602908
O       10.46699100      10.04732400      14.33947100      -0.01615944      -0.01454053      -0.00794474       1.88432596       1.38334169       1.65474566       1.90048540       1.39788222       1.66269040
H        9.57861000      10.01949000      14.01549300      -0.00657188       0.00455460       0.00695796      -1.20732318      -0.10300992      -0.54080336      -1.20075130      -0.10756452      -0.54776132
H       10.43487700      10.73857500      15.07529200       0.00641587       0.00800422      -0.00443276       0.09714719      -1.22519287      -1.00336131       0.09073132      -1.23319709      -0.99892855
O       10.50898100      11.54513400      16.76000200      -0.00558842       0.00089699       0.00996581      -0.19734000       1.11880714       0.44860915      -0.19175158       1.11791015       0.43864334
H       10.00283600      12.35670600      16.99338600       0.00905195       0.00370751      -0.00883512       0.41929975      -0.81187977      -0.34872646       0.41024780      -0.81558728      -0.33989134
H       11.41579500      11.76759300      17.02109900      -0.00256918      -0.00647434       0.01157146      -0.23977719      -0.27210095      -0.12419499      -0.23720801      -0.26562661      -0.13576645
O       14.58190000      11.17591700      14.53685000      -0.00269910       0.00049376       0.00965369       0.59089694      -0.97803784       0.37180227       0.59359604      -0.97853160       0.36214858
H       14.71033100      12.03268900      14.92000100       0.00045185       0.00513104       0.00337023      -0.02564496       0.79915199       0.11876610      -0.02609681       0.79402095       0.11539587
H       13.84872300      11.23825300      13.93415700      -0.01389800      -0.00654299      -0.01362368      -0.55213653       0.37003942      -0.46719786      -0.53823853       0.37658241      -0.45357418
O       11.88949400       7.67097400      15.44652000      -0.00147633       0.00007268      -0.00876770      -1.34578816      -1.22590820       1.07199707      -1.34431183      -1.22598088       1.08076477
H       11.15525800       7.15613900      15.89684100       0.00077135       0.00480519       0.00459047       1.44442303       0.90125786      -0.83892516       1.44365168       0.89645267      -0.84351563
H       11.46739700       8.51330700      15.25009900       0.01402202      -0.01277073       0.00530019      -0.14400786       0.29788922      -0.32423428      -0.15802988       0.31065995      -0.32953447
27
Properties=species:S:1:pos:R:3:REF_forces:R:3:DFT_forces:R:3:FOUNDATION_forces:R:3 REF_energy=0.024066335587122012 charge=0 spin=1 external_field="0.0 0.0 0.0" config_type=ORCA_DFT source_file=C_DFTprod_cutcluster_0039.out orca_step=0 DFT_energy=-18719.210308664413 FOUNDATION_energy=-18719.234375 pbc="F F F"
O       11.91001600      16.90370800      11.52450900      -0.01053429       0.01332940      -0.01393444      -0.56306804      -1.05464469      -0.27743182      -0.55253375      -1.06797409      -0.26349738
H       11.90741400      16.07041000      11.00126100       0.00794986      -0.00351528       0.01137021       0.15651381       0.60183426       0.06046932       0.14856395       0.60534954       0.04909911
H       11.15749700      16.72720700      12.10802600       0.00842532      -0.00952234       0.01428291       0.30426314       0.28695313       0.12238318       0.29583782       0.29647547       0.10810027
O       10.03559700      14.31387200      14.35527900      -0.00599512      -0.01700641      -0.01115572       0.49928025       0.91879206       1.05377746       0.50527537       0.93579847       1.06493318
H        9.64521400      14.62541400      13.56161600       0.00708783       0.02737193      -0.00839906      -0.56136596       0.81615429      -1.17071371      -0.56845379       0.78878236      -1.16231465
H        9.96322100      13.38608400      14.23472300       0.00804382       0.00743862       0.00612799       0.18027147      -1.36500875       0.18139330       0.17222765      -1.37244737       0.17526531
O        8.17699300      12.23123900      13.26924800       0.00147152       0.00508793       0.02294813      -2.38491058      -0.25736518      -0.86350383      -2.38638210      -0.26245311      -0.88645196
H        7.32834100      11.80572000      13.58543700       0.00271850       0.00185466      -0.01325209       1.55803829       0.53631473      -0.18020293       1.55531979       0.53446007      -0.16695084
H        7.86366200      12.60790200      12.40959000      -0.00105576      -0.01075156      -0.00634371       0.67175217      -0.30332695       0.86858530       0.67280793      -0.29257539       0.87492901
O       11.08302300      14.27976600       9.78027300       0.01946592      -0.01173228      -0.04650270       0.64642125      -1.64192635       0.28009842       0.62695533      -1.63019407       0.32660112
H       11.65042500      13.46981600       9.89067900      -0.01285528       0.01910411       0.02537672      -0.18887042       1.13490616      -0.40189235      -0.17601514       1.11580205      -0.42726907
H       10.32489200      13.90379400      10.25709100      -0.01115398      -0.00006068       0.01053100      -0.07193608       0.77472281      -0.29148115      -0.06078210       0.77478349      -0.30201215
O       12.34097600      12.34940600      11.17460700       0.00209591      -0.00340866      -0.02405416       0.28118101      -0.28948407      -0.05501508       0.27908510      -0.28607541      -0.03096092
H       12.00000000      12.00000000      12.00000000       0.00669154       0.01240496       0.00739735      -0.44677374      -0.56141754       0.36678713      -0.45346528      -0.57382250       0.35938978
H       12.82241800      13.10637000      11.49784700      -0.01720224       0.00087297       0.01372598       0.45619066       0.55133820      -0.03453007       0.47339290       0.55046523      -0.04825605
O        8.91220100      14.99457600      10.85645200       0.00902036      -0.02801248       0.00050604      -3.05740282       3.53596095       0.63261962      -3.06642318       3.56397343       0.63211358
H        7.94930900      15.19371600      11.15497100      -0.01485918       0.02372860      -0.00255327       2.17170765      -0.96777559      -0.59597842       2.18656683      -0.99150419      -0.59342515
H        9.10975100      15.95847300      10.57058700       0.00552999      -0.00932913       0.01231840       0.29061305      -2.39259653       0.35120603       0.28508306      -2.38326740       0.33888763
O       11.67491700       7.13868200      11.56768000      -0.01514585      -0.00861186       0.00009388       0.37011244      -0.12768480      -1.18012076       0.38525829      -0.11907294      -1.18021464
H       11.03071900       7.60472000      12.10876900       0.00517167       0.00626487      -0.00133592      -0.24452268       0.14986843      -0.54067552      -0.24969435       0.14360356      -0.53933960
H       11.54609200       7.31318700      10.59622400       0.00938020       0.00351863       0.00181180      -0.15928834       0.04094030       1.82224184      -0.16866854       0.03742167       1.82043004
O       11.87813200       8.60263500      14.56614000       0.00101326      -0.00161234       0.01027324      -0.55304911       1.71831712       1.94085409      -0.55406237       1.71992946       1.93058085
H       12.26685900       9.44756800      14.92055200       0.00212446      -0.00171519       0.00214689      -0.39472571      -1.44917238      -0.68617154      -0.39685017      -1.44745719      -0.68831843
H       12.38889700       8.36953400      13.81886500      -0.00035341       0.00322228      -0.00602296       1.04274778      -0.30744848      -1.30476466       1.04310119      -0.31067076      -1.29874170
O       10.86566900      11.55321500      13.50975200       0.00377232       0.00236261       0.00060514       1.23297781      -0.77818608       1.35264817       1.22920549      -0.78054869       1.35204303
H       10.68679400      11.01880800      14.30898600      -0.00648427      -0.00824725      -0.01364932       0.47205314       0.17482171      -0.60485402       0.47853741       0.18306896      -0.59120470
H        9.99253000      11.72603700      13.22023000      -0.00432303      -0.01303636       0.00768695      -1.70821037       0.25511331      -0.84572794      -1.70388734       0.26814967      -0.85341489
27
Properties=species:S:1:pos:R:3:REF_forces:R:3:DFT_forces:R:3:FOUNDATION_forces:R:3 REF_energy=0.01386316389834974 charge=0 spin=1 external_field="0.0 0.0 0.0" config_type=ORCA_DFT source_file=C_DFTprod_cutcluster_0040.out orca_step=0 DFT_energy=-18719.4900430861 FOUNDATION_energy=-18719.50390625 pbc="F F F"
O       10.61628900      13.75594600      13.99391600      -0.00101984      -0.00626655       0.01398893      -0.15873668      -1.03089495       0.48753210      -0.15771684      -1.02462840       0.47354317
H       10.79928300      14.51879800      14.51699000      -0.00258298       0.00160127      -0.00629511       0.30482395       0.68669265       1.07841835       0.30740693       0.68509138       1.08471346
H       10.56034000      14.15635100      13.13975100       0.00719542       0.01039954       0.00867542      -0.07155453       0.34402062      -1.59049240      -0.07874995       0.33362108      -1.59916782
O       10.77378200      15.02528900      11.30625200      -0.01198928      -0.01818611      -0.01047861      -1.33537452      -1.04311206      -0.56881892      -1.32338524      -1.02492595      -0.55834031
H       10.55776200      14.21001600      10.77298400       0.01059839       0.00831641       0.01632391       0.58971289       0.92832489       0.75671922       0.57911450       0.92000848       0.74039531
H        9.86711300      15.38147300      11.38115600      -0.00227230       0.01343654      -0.00517244       0.63949794       0.22443578       0.03162025       0.64177024       0.21099924       0.03679269
O        9.08307900      12.83246700      10.35965100       0.01440723       0.01372792      -0.00155695       1.85930784      -0.92074178       0.33202339       1.84490061      -0.93446970       0.33358034
H        8.27719700      13.27618200      10.22433100      -0.00764492      -0.00062644      -0.00707995      -1.67651144       0.83991200      -0.40489062      -1.66886652       0.84053844      -0.39781067
H        9.39186400      12.52503900       9.50095500      -0.00575992      -0.00608169       0.00406092      -0.18230269       0.03038967      -0.04473200      -0.17654277       0.03647136      -0.04879292
O       10.68464000       7.48801400      11.79328300       0.00142555      -0.00724328      -0.00092455      -0.79044999       0.68816065      -0.42957254      -0.79187554       0.69540393      -0.42864799
H       10.26626800       8.32648900      11.47894700       0.00150019       0.00526550       0.00603284       0.32977882      -0.88795224       0.47087948       0.32827863      -0.89321774       0.46484664
H       11.60449400       7.72460600      11.90539800      -0.01245485      -0.00531934      -0.00851116       0.42150782       0.22146435       0.00648005       0.43396267       0.22678369       0.01499121
O        8.95960500       9.78686500      11.11049100       0.02111572       0.00224213       0.00326900      -0.00435735       0.19779981      -0.07998723      -0.02547307       0.19555768      -0.08325623
H        8.66256300      10.52183900      11.68859100      -0.00653864      -0.00784600       0.00401972       0.21570112      -0.48987556      -1.08391465       0.22223976      -0.48202956      -1.08793437
H        8.91482300      10.01020600      10.15903500      -0.00784583      -0.00378527      -0.00774350      -0.21095934       0.25260751       1.15158043      -0.20311351       0.25639278       1.15932393
O        8.98129100      11.14855200      15.45384300      -0.00309138       0.00810595       0.00119222       1.08514579       1.91761013      -0.91479086       1.08823717       1.90950418      -0.91598308
H        9.55078200      10.42083400      15.15136600       0.00400298      -0.00195210      -0.00507646      -0.16269515       0.57658679       0.06794480      -0.16669813       0.57853889       0.07302126
H        9.40632400      12.02361300      15.11832200       0.00389196      -0.00600340      -0.00364102      -0.85532926      -2.40540459       0.71403633      -0.85922122      -2.39940119       0.71767735
O       12.92585600       9.20997000      12.75260600      -0.00158292       0.00756374      -0.00915277       0.08113317      -0.22461529       0.27672461       0.08271609      -0.23217903       0.28587738
H       13.08612400      10.17160800      12.61724300       0.00991038      -0.00530497       0.00480809      -0.71576586      -0.89571867       0.66556229      -0.72567624      -0.89041370       0.66075420
H       12.52696200       8.96539200      13.61927500      -0.00491146       0.00721065       0.00911082       0.55430695       1.05729298      -0.97365241       0.55921841       1.05008233      -0.98276323
O       12.00000000      12.00000000      12.00000000      -0.00477393      -0.00736763       0.00691452       1.76931922       0.21513851       0.35723054       1.77409315       0.22250614       0.35031602
H       12.01318100      12.57484300      12.77169400       0.00067307       0.01360678      -0.02501966       0.17052956       0.15747484       0.21830364       0.16985649       0.14386806       0.24332330
H       11.09109500      11.95237700      11.81030800      -0.00442916      -0.01976213       0.00631599      -1.91082591      -0.44182462      -0.51716824      -1.90639675      -0.42206249      -0.52348423
O       13.47624700      13.10954400       7.98914600       0.00162430      -0.00308468      -0.00801129      -0.14382644      -0.50617733      -0.82074232      -0.14545074      -0.50309265      -0.81273103
H       12.56261500      13.04355900       8.28421000      -0.00352453       0.00720378       0.01736850       0.08959786       0.04509042       0.12409641       0.09312239       0.03788664       0.10672791
H       13.48818500      12.57395100       7.16888400       0.00407633       0.00014945      -0.00341767       0.10832614       0.46331545       0.68961018       0.10424981       0.46316600       0.69302785
27
Properties=species:S:1:pos:R:3:REF_forces:R:3:DFT_forces:R:3:FOUNDATION_forces:R:3 REF_energy=0.02019492613908369 charge=0 spin=1 external_field="0.0 0.0 0.0" config_type=ORCA_DFT source_file=C_DFTprod_cutcluster_0041.out orca_step=0 DFT_energy=-18719.06378944886 FOUNDATION_energy=-18719.083984375 pbc="F F F"
O       14.07148700      13.28865900      16.77889700      -0.02258511      -0.00909045       0.02421148       1.50889175      -0.23775090      -1.34476774       1.53147686      -0.22866045      -1.36897922
H       13.13138100      13.14489500      16.78134200       0.01200851       0.02529139       0.00356772      -0.54104761      -0.26659539       0.16083887      -0.55305612      -0.29188678       0.15727115
H       14.41681700      13.00267800      15.88488800       0.01263413      -0.00477463      -0.00870860      -0.47937116       0.64526343       1.45049917      -0.49200529       0.65003806       1.45920777
O       10.54916200      11.94919800      15.05240400      -0.00707005      -0.01459960       0.02361150      -0.60362421      -1.52670816      -0.11432360      -0.59655416      -1.51210856      -0.13793510
H       10.63107100      10.95756000      15.19877500      -0.00043049      -0.01303698      -0.00432866      -0.36889013       1.91626035      -0.15689423      -0.36845964       1.92929733      -0.15256557
H        9.66794700      12.23472000      15.37151100      -0.00824778       0.00891805      -0.00716787       0.46102588      -0.48134839      -0.48092874       0.46927366      -0.49026644      -0.47376087
O       11.53091000      12.49598300      17.45587100      -0.00157540      -0.02083183      -0.03103162      -0.50382601      -0.57584143       0.84184753      -0.50225061      -0.55500960       0.87287915
H       11.19804600      11.63658000      17.76217800      -0.00520953       0.00103023       0.01210781       0.44576443       0.39718070       0.20730945       0.45097396       0.39615047       0.19520164
H       11.02774800      12.61471800      16.65081700       0.00890780       0.01551160       0.00667765       0.15842203       0.30050552      -0.35481144       0.14951423       0.28499392      -0.36148909
O       12.06183300      12.78703600      12.60301000      -0.01105993      -0.02693467       0.02480874      -1.14342098      -2.00705342       0.02784947      -1.13236105      -1.98011875       0.00304073
H       12.00000000      12.00000000      12.00000000       0.00991173       0.01964760      -0.01198025       0.23312153       1.19257426       0.65091960       0.22320980       1.17292666       0.66289985
H       11.40862700      12.52885500      13.31493000      -0.00338887       0.01118698      -0.01160586       0.92118777       0.67108127      -0.71499407       0.92457664       0.65989429      -0.70338821
O        9.57776200      16.31447900      12.23624900       0.00817684       0.00355022      -0.00962291      -0.26591744       1.03348081       1.27041127      -0.27409428       1.02993059       1.28003418
H       10.02577400      17.17080900      12.38969500      -0.00796281      -0.00442372      -0.00111108      -0.31005033      -0.78610919      -0.18168630      -0.30208752      -0.78168547      -0.18057522
H        9.94471400      15.94073100      11.45667500      -0.00647616      -0.00057805       0.00228955       0.60330832      -0.34119606      -1.03701649       0.60978448      -0.34061801      -1.03930604
O       13.19144700      15.18361100      13.23259700       0.02028308      -0.00292689      -0.03388497       0.01316965      -1.19025857      -1.45888981      -0.00711343      -1.18733168      -1.42500484
H       13.92626300      15.73595900      13.00546100      -0.00662416       0.00133107       0.01264062       0.79559410       0.98448108       0.34868136       0.80221826       0.98315001       0.33604074
H       13.25837700      14.56406200      12.45902900      -0.00444609       0.01074181       0.00523797      -0.79226071       0.36190702       1.17841426      -0.78781462       0.35116521       1.17317629
O       10.90645500      16.18440700      15.05408500      -0.00113851      -0.01533231       0.00197227      -0.19504827      -0.00917318       0.01084034      -0.19390976       0.00615913       0.00886807
H       11.83252500      16.38046800      14.94407900       0.00841036      -0.01852845       0.01513071       0.67838737       0.19236959       0.36545653       0.66997701       0.21089804       0.35032582
H       10.77509800      15.68564300      14.24748900      -0.00245638       0.02879821      -0.01009063      -0.53216173      -0.22044183      -0.40860895      -0.52970535      -0.24924004      -0.39851832
O        8.08785200       9.05523800      13.00634300      -0.00438146      -0.01442461      -0.00246527      -1.08375148      -0.89427983      -1.43526985      -1.07937002      -0.87985522      -1.43280458
H        7.71836800       9.63134000      13.65107200       0.00547470       0.01131662       0.00312568       0.16043176       0.65800824       0.87927873       0.15495706       0.64669162       0.87615305
H        9.01705500       8.92664700      13.07311400       0.00382141       0.00815718       0.00715667       0.91314242       0.22513460       0.54097897       0.90932101       0.21697742       0.53382230
O       15.02102100      12.81156200      14.07871800      -0.03124243       0.00440635      -0.01552921       1.17372483      -3.62707792       0.43245465       1.20496726      -3.63148427       0.44798386
H       14.15920900      13.13816000      13.91598700       0.01491533      -0.00492443       0.00263787      -1.68163838       0.77282189      -0.48535191      -1.69655371       0.77774632      -0.48798978
H       14.88899100      11.78831300      14.11227700       0.01975129       0.00051838       0.00235045       0.43483667       2.81276542      -0.19223703       0.41508538       2.81224704      -0.19458748
27
Properties=species:S:1:pos:R:3:REF_forces:R:3:DFT_forces:R:3:FOUNDATION_forces:R:3 REF_energy=-0.010684817549190484 charge=0 spin=1 external_field="0.0 0.0 0.0" config_type=ORCA_DFT source_file=C_DFTprod_cutcluster_0042.out orca_step=0 DFT_energy=-18720.29584106755 FOUNDATION_energy=-18720.28515625 pbc="F F F"
O       12.00000000      12.00000000      12.00000000       0.03962334       0.01104923       0.01725659      -0.82241718      -0.35239975       0.32851687      -0.86204052      -0.36344898       0.31126028
H       11.87043600      12.76523500      11.42893300      -0.00948400      -0.00999786       0.00415942       0.07781156       0.10406618      -0.17414299       0.08729556       0.11406404      -0.17830241
H       12.92593300      11.77666200      12.04626300      -0.00519927      -0.01046060      -0.00276971       0.63128655      -0.07665668      -0.33709741       0.63648582      -0.06619608      -0.33432770
O       10.90968800      14.32701100      10.97690400      -0.01208656       0.02776882       0.00762181      -0.89661830      -2.02931526      -2.03371139      -0.88453174      -2.05708408      -2.04133320
H       11.54884600      14.94182100      10.71777900       0.01123258      -0.01558051      -0.00504767       1.36991009       1.63140776      -0.25611635       1.35867751       1.64698827      -0.25106868
H       10.66734900      14.41510300      11.86386300      -0.01805000       0.00224294      -0.00464455      -0.63976292       0.53565987       2.26903399      -0.62171292       0.53341693       2.27367854
O       10.60620900      11.76615100      15.18409400       0.00032070       0.00701791      -0.02308425       0.09433748      -0.93779010      -0.00900812       0.09401678      -0.94480801       0.01407613
H       11.10752000      12.44033100      14.72618100      -0.00011050       0.00393293      -0.00173441       0.16483863       0.51299832      -0.22388083       0.16494913       0.50906539      -0.22214642
H        9.88111500      12.21491000      15.61012200      -0.01988838      -0.00594362       0.02757639      -0.33789728       0.19446900       0.13023230      -0.31800890       0.20041262       0.10265591
O       12.13500900      13.91504100      14.51721400       0.01904872      -0.00843702      -0.02078624      -1.14490482       0.78516354       0.37172760      -1.16395354       0.79360056       0.39251384
H       11.59582700      14.72678900      14.45448000      -0.00325889      -0.00008926       0.00330663       0.26691925      -0.57705185       0.17309886       0.27017814      -0.57696259       0.16979223
H       12.96016300      14.14423900      14.12408300      -0.00406982       0.01406501       0.00036869       1.02018820       0.13076333      -0.56195017       1.02425802       0.11669832      -0.56231886
O       14.80644900      11.23770600      12.20867800      -0.02043881      -0.01446558      -0.01036746       0.46992005      -1.14193154       0.30816674       0.49035886      -1.12746596       0.31853420
H       15.29251700      10.37061500      12.22887200       0.01995855       0.00994316       0.00422018      -0.76115031       1.31702939      -0.02851174      -0.78110886       1.30708623      -0.03273192
H       14.42059300      11.31363200      13.10979000       0.00565332      -0.00011894      -0.00124728       0.37196687      -0.19520804      -0.10505631       0.36631355      -0.19508910      -0.10380903
O        8.47823800      13.87076100      13.11415600      -0.00417150       0.01845389       0.00589381      -0.22970443       1.69855886       0.10072513      -0.22553293       1.68010497       0.09483132
H        7.92923500      14.32754700      12.45579500       0.00471430      -0.00862228       0.00032963       0.26014768      -0.24724378       0.38386573       0.25543338      -0.23862150       0.38353610
H        8.59985700      12.99082600      12.77246100      -0.00055500      -0.01093648      -0.00278421       0.06380532      -1.23118482      -0.42991157       0.06436032      -1.22024834      -0.42712736
O       12.68987600       8.66017600      10.57466800       0.00133347      -0.00058881       0.01361734       1.04681897       0.76642164      -0.26266932       1.04548550       0.76701045      -0.27628666
H       12.20486100       9.20704000      11.21986300       0.00518104      -0.00618142      -0.01393391       0.56976339      -0.02725642      -0.52621908       0.56458235      -0.02107500      -0.51228517
H       13.48884900       9.17568200      10.26217200      -0.00573872       0.00625431      -0.00179633      -1.63535713      -0.63695419       0.80430469      -1.62961841      -0.64320850       0.80610102
O       13.58568800      11.12752600      14.71062800       0.01115508      -0.00218995      -0.00610704       0.19178570       0.51841496       0.32324492       0.18063062       0.52060491       0.32935196
H       13.19610900      11.82919300      15.24680800      -0.00388153      -0.00996844       0.00941242       0.27999259       0.26507201       0.04539154       0.28387412       0.27504045       0.03597912
H       12.83518400      10.54578600      14.66707300      -0.01346799      -0.00111438       0.00654764      -0.57328930      -0.78151823      -0.25324072      -0.55982131      -0.78040385      -0.25978836
O        9.16011100      11.36681100      12.29520300       0.00419010       0.00318183       0.00585705       0.01321095       0.18659124       1.44456321       0.00902085       0.18340941       1.43870616
H       10.03323800      11.52525800      12.69467800       0.00041934       0.00412280      -0.00542434      -0.07973336      -0.24393492       0.07444152      -0.08015270      -0.24805772       0.07986586
H        9.36883800      11.29791700      11.38520900      -0.00242938      -0.00333862      -0.00644051       0.22813174      -0.16817047      -1.55579721       0.23056112      -0.16483185      -1.54935670
27
Properties=species:S:1:pos:R:3:REF_forces:R:3:DFT_forces:R:3:FOUNDATION_forces:R:3 REF_energy=-0.02299111462343717 charge=0 spin=1 external_field="0.0 0.0 0.0" config_type=ORCA_DFT source_file=C_DFTprod_cutcluster_0043.out orca_step=0 DFT_energy=-18720.360881739623 FOUNDATION_energy=-18720.337890625 pbc="F F F"
O       12.53413800       9.70277200      13.71832900      -0.00277945      -0.04109232      -0.00435429      -0.38038826      -1.33268396      -0.32454889      -0.37760881      -1.29159164      -0.32019460
H       12.66064000      10.24557300      14.48548200      -0.00240580       0.01938714      -0.00681158       0.33919322       0.73830493       0.26493595       0.34159902       0.71891779       0.27174753
H       12.67405900      10.18813300      12.90156400       0.01375331       0.03183723       0.00917131       0.16948323       0.27087376       0.25287012       0.15572992       0.23903653       0.24369881
O        8.83841700      11.57436100      12.92987400      -0.02232054       0.00886045      -0.00745179      -0.18908624      -1.10840168      -1.48892714      -0.16676570      -1.11726213      -1.48147535
H        9.05679800      11.92575700      13.77090800      -0.01028041      -0.00634461       0.00000448       0.53499385       0.59498072       1.69141073       0.54527426       0.60132533       1.69140625
H        8.70710700      12.31498600      12.34793800       0.01503817       0.00253776       0.00499258      -0.13314515       0.45163462      -0.24846258      -0.14818332       0.44909686      -0.25345516
O       10.19189900      12.02601500      15.43287100       0.02528950      -0.02246750      -0.00488066      -0.58439169       1.94940018       1.16136528      -0.60968119       1.97186768       1.16624594
H       10.44974300      12.76079600      16.06633900      -0.00431290       0.00781133      -0.00579719      -0.73371103      -1.42741189      -1.11267809      -0.72939813      -1.43522322      -1.10688090
H       11.04792200      11.64695000      15.24253600       0.01528422       0.00343537       0.00305217       0.59969340      -0.40508736      -0.10706681       0.58440918      -0.40852273      -0.11011898
O       12.74234600       9.61119300      10.89222900      -0.01343406      -0.01570408       0.00733988      -0.31391794      -0.44178374      -0.46148451      -0.30048388      -0.42607966      -0.46882439
H       13.37846800       8.89184600      10.87023700       0.00765043       0.00228068       0.00899829       0.25519785       0.06981481       0.09769416       0.24754742       0.06753413       0.08869587
H       11.89247400       9.14929700      10.76257100      -0.01126580      -0.00552427      -0.00962841      -0.05921452       0.27356324       0.13990993      -0.04794872       0.27908751       0.14953834
O       12.00000000      12.00000000      12.00000000       0.01007549       0.00395028      -0.02731363       0.01287074       0.05022239      -0.38110910       0.00279525       0.04627211      -0.35379547
H       12.43011200      11.55606000      11.23673900       0.00966606       0.01016572       0.00043575      -0.74032756      -0.11723085       0.74591241      -0.74999362      -0.12739657       0.74547666
H       11.17438200      11.53637100      12.25986100      -0.01204177       0.00641595       0.02670950       0.60691486       0.18330553      -0.46063178       0.61895663       0.17688958      -0.48734128
O       12.75203100      11.60148600      15.85599900      -0.02954823       0.00639244       0.00961365       0.82199496       0.92168137      -0.37875582       0.85154319       0.91528893      -0.38836947
H       13.12475400      12.49551400      15.66150000       0.00514164       0.01446230      -0.01339567      -0.33644337      -0.60109018       0.02555780      -0.34158501      -0.61555248       0.03895347
H       12.77009700      11.51963100      16.80668600      -0.00142580      -0.01243406       0.00630827       0.06334864      -0.13099756       0.43211902       0.06477444      -0.11856350       0.42581075
O       12.58247300      14.63186300      15.10371200      -0.00810953      -0.00192734      -0.00697508       0.95284412      -0.09043928       0.52507690       0.96095365      -0.08851194       0.53205198
H       12.59340700      14.77798400      14.15361100       0.00049104       0.00749560       0.00168847       0.24209088       0.21590244      -0.73279078       0.24159984       0.20840684      -0.73447925
H       11.68184000      14.37008000      15.18810900       0.01386847      -0.01594619       0.00140220      -1.18631886      -0.29251463       0.37805349      -1.20018733      -0.27656844       0.37665129
O        9.93732600       8.53824400      10.55056900       0.00151003       0.01601522       0.00430862      -1.35721182       0.46009766       1.99582664      -1.35872185       0.44408244       1.99151802
H        9.17680300       8.75191600      11.20790700       0.00588262      -0.00607914       0.00433948       1.95162094      -0.45479131      -1.92062686       1.94573832      -0.44871217      -1.92496634
H        9.60175900       8.60241300       9.65650100       0.00050327      -0.00357531      -0.00519219      -0.40400467       0.08955811      -0.05609638      -0.40450794       0.09313342      -0.05090419
O       11.93514000      14.66550000      12.44087300       0.01069197      -0.01808073       0.00783387       1.00123665       0.39888303       0.37368673       0.99054468       0.41696376       0.36585286
H       11.07558100      14.93093700      12.12484400      -0.00304945      -0.00374827      -0.00606327      -0.16068794      -0.39900521      -0.33305158      -0.15763849      -0.39525694      -0.32698831
H       12.20477000      13.76917000      12.15032900      -0.01387256       0.01187578       0.00166463      -0.97263431       0.13321498      -0.07818885      -0.95876175       0.12133920      -0.07985348
27
Properties=species:S:1:pos:R:3:REF_forces:R:3:DFT_forces:R:3:FOUNDATION_forces:R:3 REF_energy=0.003986005485785427 charge=0 spin=1 external_field="0.0 0.0 0.0" config_type=ORCA_DFT source_file=C_DFTprod_cutcluster_0044.out orca_step=0 DFT_energy=-18720.310467119514 FOUNDATION_energy=-18720.314453125 pbc="F F F"
O       11.04177200       9.57240000      10.61884400      -0.02696050      -0.00600895       0.02318494       1.60442614      -2.83928188      -0.23764153       1.63138664      -2.83327293      -0.26082647
H       11.70390400       8.79158000      10.72833200       0.00952966       0.00937534      -0.02733539      -1.78715723       1.91065360      -0.34878169      -1.79668689       1.90127826      -0.32144630
H       11.42711700      10.23959500      11.17762000      -0.00883705       0.00338180       0.01220726       0.24392515       0.89103926       0.84971284       0.25276220       0.88765746       0.83750558
O       13.32430600       9.97889700       8.57912000      -0.00298194       0.00414154       0.00431637      -0.75066463       0.02630290       0.89531676      -0.74768269       0.02216136       0.89100039
H       13.94014000       9.58175300       9.19998000      -0.00375676       0.00078390      -0.00363341       0.34173265      -0.02185356      -0.09234349       0.34548941      -0.02263746      -0.08871008
H       12.51454300      10.07380700       9.13518700      -0.00075289       0.00157121      -0.00097734       0.45343614      -0.00434969      -0.94730658       0.45418903      -0.00592090      -0.94632924
O       10.59596500      10.83559600       7.82109900       0.01720308       0.00141349      -0.01513444      -1.71171309       1.82614889      -1.12428986      -1.72891617       1.82473540      -1.10915542
H        9.83107000      11.18829200       8.36036700       0.00603750       0.01171978       0.01049837       0.64311960      -0.66108791      -0.56058923       0.63708210      -0.67280769      -0.57108760
H       10.35437100      11.21406700       6.91200300      -0.00578038      -0.00745152      -0.00809060       0.69019814      -0.94387852       1.78154852       0.69597852      -0.93642700       1.78963912
O        7.77965300      10.30357100      12.15478100      -0.00672369      -0.02145859      -0.01228726      -0.73893778       0.72960416      -0.89018190      -0.73221409       0.75106275      -0.87789464
H        8.19994100       9.57009200      12.59250900      -0.00162107       0.00783288      -0.00253001       0.23723319      -0.67538453      -0.08080417       0.23885426      -0.68321741      -0.07827416
H        7.65567800      10.04404700      11.21642700       0.00560319      -0.00542238      -0.00071100       0.30933716      -0.01190951       1.25759586       0.30373397      -0.00648713       1.25830686
O       11.26020000      13.09178900       9.68856100       0.04648026      -0.01775954      -0.01846615      -0.55344347       0.75298109      -0.58138761      -0.59992373       0.77074063      -0.56292146
H       11.18724100      12.53950900       8.88961500      -0.01249830      -0.00046973      -0.00642486       0.12782230      -0.01794975       0.09663019       0.14032060      -0.01748002       0.10305505
H       10.63679200      13.84203700       9.56150400      -0.02875520      -0.00448566       0.01949950       0.60735904      -0.82822304       0.20089044       0.63611424      -0.82373738       0.18139094
O        7.98192700      12.07169800       9.10851600      -0.01139141       0.00404779      -0.00411351       0.42543518       0.00879441       0.54440002       0.43682659       0.00474662       0.54851353
H        8.27198900      12.31409700      10.02649200      -0.00170422      -0.00080731       0.00602686       0.40813258       0.64375970      -0.41918508       0.40983680       0.64456701      -0.42521194
H        7.54931200      11.25733600       9.34176100       0.00395322      -0.00724284       0.00700523      -0.62785387      -0.67385672      -0.55293964      -0.63180709      -0.66661388      -0.55994487
O       12.00000000      12.00000000      12.00000000      -0.00892574       0.02172697      -0.00755537      -0.14079455      -0.31448116      -0.38666931      -0.13186881      -0.33620813      -0.37911394
H       12.51950100      12.52991000      12.61189900       0.00222797      -0.00963576      -0.01097715      -0.05474316       0.00950480      -0.22423677      -0.05697113       0.01914056      -0.21325962
H       11.96243900      12.44609700      11.12071400       0.01498555      -0.00667986       0.03104127       0.19214143       0.15982205       0.56258071       0.17715588       0.16650191       0.53153944
O        9.02990900      12.65429200      11.49293000       0.03096418      -0.03891209      -0.00023302      -0.33840729       0.68433520      -0.15606916      -0.36937147       0.72324729      -0.15583614
H        8.52421000      12.02681900      12.02140100      -0.00591548       0.02391081      -0.00419239       0.14166301      -0.38089071       0.28674086       0.14757849      -0.40480152       0.29093325
H        9.93826700      12.34428800      11.45541300      -0.01401143       0.02025997      -0.00227037       0.19471141      -0.13444839       0.24874654       0.20872284      -0.15470836       0.25101691
O        8.70166800       7.87311400      10.96828300       0.02133071       0.01677590       0.02602628      -0.11275486       0.19636180      -0.13708676      -0.13408557       0.17958590      -0.16311304
H        7.92971900       8.09044800      10.41197600      -0.01288191       0.00560189      -0.01438608       0.92241027      -0.17295951       0.16976214       0.93529218      -0.17856140       0.18414822
H        9.46189600       8.45940500      10.75277300      -0.00481743      -0.00621020      -0.00048777      -0.72661335      -0.15875298      -0.15441209      -0.72179592      -0.15254278      -0.15392432
27
Properties=species:S:1:pos:R:3:REF_forces:R:3:DFT_forces:R:3:FOUNDATION_forces:R:3 REF_energy=-0.004127284075366333 charge=0 spin=1 external_field="0.0 0.0 0.0" config_type=ORCA_DFT source_file=C_DFTprod_cutcluster_0045.out orca_step=0 DFT_energy=-18719.320533534075 FOUNDATION_energy=-18719.31640625 pbc="F F F"
O       14.21575100       9.60681500      10.49387200       0.00536910      -0.00086117      -0.00269636      -0.36506012      -1.17015434       1.44427005      -0.37042922      -1.16929317       1.44696641
H       13.93677600       9.37538000      11.41238800       0.00244920      -0.00583075       0.00322643       0.37620945       0.78053237      -0.74310872       0.37376025       0.78636312      -0.74633515
H       13.98198500       8.79075600      10.03105000      -0.00828167       0.01984251       0.00514522       0.10417987       0.28046269      -0.28989977       0.11246154       0.26062018      -0.29504499
O        9.79181800      14.30255800      10.08032800      -0.01352688      -0.01338768      -0.00694854       0.56259850      -1.75651050      -0.62737370       0.57612538      -1.74312282      -0.62042516
H       10.47697700      13.67557100      10.43537100       0.02596004      -0.00148789       0.00845126      -0.89997904       1.06119164      -0.16500159      -0.92593908       1.06267953      -0.17345285
H        9.68249000      15.04429500      10.65254100      -0.00503134       0.01833697       0.01225742       0.21551693       0.59397157       0.67332199       0.22054827       0.57563460       0.66106457
O       11.91921400      12.81955800      11.54627600       0.01483679      -0.02670208      -0.03279085       0.13685695       1.30454298      -0.69175489       0.12202016       1.33124506      -0.65896404
H       12.00000000      12.00000000      12.00000000      -0.01074292       0.00476382       0.02100332      -0.03130401      -1.28856768       0.63874085      -0.02056109      -1.29333150       0.61773753
H       12.84626900      13.01714900      11.27878900       0.00780766       0.02283876      -0.00811522      -0.78693457       0.13540371       0.23241175      -0.79474223       0.11256495       0.24052697
O       11.52145400      16.14843400      11.64679200       0.01264686      -0.02253630      -0.01478263      -0.56096333      -0.86653068       0.04177184      -0.57361019      -0.84399438       0.05655447
H       12.37139700      16.34895200      12.00806300      -0.00413619       0.00773831       0.01560679       0.77261825       0.55652072       0.35010216       0.77675444       0.54878241       0.33449537
H       11.41213800      15.21783800      11.91614900      -0.00135841       0.01011205      -0.00258534      -0.11081558       0.37090135      -0.31319885      -0.10945717       0.36078930      -0.31061351
O       13.93459700      11.41634900       8.57565900      -0.03246916      -0.01830781      -0.00858918      -0.98822106       1.42095482       3.14364704      -0.95575190       1.43926263       3.15223622
H       14.28042300      11.10217400       9.46279200       0.00983284      -0.00675242       0.01677621      -0.57238211       0.11246042      -1.60329341      -0.58221495       0.11921284      -1.62006962
H       14.37643200      10.95513400       7.91790100       0.01825526       0.00888611      -0.00996028       1.43027034      -1.36406361      -1.80087839       1.41201508      -1.37294972      -1.79091811
O       11.30276900      13.94606200      14.54490600      -0.00232549       0.01222046      -0.00967159       0.79816227      -0.16615982       0.17577184       0.80048776      -0.17838028       0.18544343
H       11.42285700      13.71352600      13.61291200      -0.00207905       0.00139539       0.02091764      -0.04814864      -0.12964994      -0.04536619      -0.04606959      -0.13104533      -0.06628383
H       12.18647600      13.81032000      14.93754600       0.00092862      -0.00732055       0.00649475      -0.68653180       0.17423565      -0.24839250      -0.68746042       0.18155620      -0.25488725
O       11.20688500      10.02699600       8.62118400       0.00256947       0.00737022       0.00626364       1.56974200       0.40259807       0.25080527       1.56717253       0.39522785       0.24454163
H       12.05813400      10.54405800       8.76567900      -0.00042509       0.00977934      -0.00103740      -1.33225058      -0.66158562      -0.34623943      -1.33182549      -0.67136496      -0.34520203
H       11.51911500       9.15711400       8.33215900       0.00695778      -0.01367139      -0.00069067      -0.18509759       0.30051658       0.04190729      -0.19205537       0.31418797       0.04259796
O       13.17362800      10.82264800      13.20768800      -0.01262389      -0.00315068      -0.00350935       1.25041308       1.49839034       2.59876745       1.26303697       1.50154102       2.60227680
H       12.70555500      10.32537300      13.88244300       0.00324202       0.00883260      -0.00393739      -0.72121578      -0.79648313      -0.29215797      -0.72445780      -0.80531573      -0.28822058
H       13.62333100      11.42489600      13.90671300       0.00157384      -0.01603810      -0.00073968      -0.54035403      -0.90147404      -2.30058204      -0.54192787      -0.88543594      -2.29984236
O       14.35450000      13.75538400      11.58109400      -0.02219340       0.01698476      -0.02084292       2.48646572       0.03137805      -2.39240612       2.50865912       0.01439329      -2.37156320
H       14.98981700      13.80305400      10.78078600       0.00034257       0.00143892       0.00829900      -1.53007153      -0.63927394       1.62988032      -1.53041410      -0.64071286       1.62158132
H       14.45830300      14.65643100      11.86649800       0.00242149      -0.01449374       0.00245580      -0.34370355       0.71639224       0.63825563      -0.34612504       0.73088598       0.63579983
27
Properties=species:S:1:pos:R:3:REF_forces:R:3:DFT_forces:R:3:FOUNDATION_forces:R:3 REF_energy=-0.013481137310009217 charge=0 spin=1 external_field="0.0 0.0 0.0" config_type=ORCA_DFT source_file=C_DFTprod_cutcluster_0046.out orca_step=0 DFT_energy=-18719.84941863731 FOUNDATION_energy=-18719.8359375 pbc="F F F"
O       11.73818700      11.60420600      12.83946200       0.02684204      -0.01971780       0.00237771       1.19920163       0.34109162      -0.07086655       1.17235959       0.36080942      -0.07324426
H       12.00000000      12.00000000      12.00000000      -0.01789783       0.01818512      -0.01159313      -0.26941620       0.03627086      -0.66844877      -0.25151837       0.01808574      -0.65685564
H       12.61618000      11.31159900      13.17256100       0.00188302      -0.01052010       0.00676985      -0.98311449       0.02514097       0.41672258      -0.98499751       0.03566107       0.40995273
O       11.41939300      14.47660800      13.61188300      -0.01627087       0.02338429      -0.00198374      -0.20585822       0.27635654      -0.29006437      -0.18958735       0.25297225      -0.28808063
H       11.48091100      13.52078400      13.35808300       0.00514054      -0.04228220      -0.00986953      -0.84952361       0.69549873       0.23809348      -0.85466415       0.73778093       0.24796301
H       10.51685000      14.85679200      13.48783200       0.00935126       0.01214436       0.00216075       1.01174629      -1.14401182      -0.01035779       1.00239503      -1.15615618      -0.01251854
O       12.88445100      15.70333400      11.25231000       0.01052795      -0.00320623       0.00670217      -0.34159993       0.21684187       0.18247439      -0.35212788       0.22004810       0.17577222
H       12.44411800      15.46452500      12.07902800      -0.00575532       0.00419471      -0.00034977       0.00235019      -0.74353018       0.36626910       0.00810551      -0.74772489       0.36661887
H       12.64150500      16.63351600      11.23472100      -0.00407542       0.00150684      -0.00264295       0.23146558       0.23692188      -0.54100349       0.23554100       0.23541504      -0.53836054
O        9.64205100      10.02495800      11.68746400       0.01929880       0.01141583       0.02950545       0.57279683       0.08374726      -0.28719039       0.55349803       0.07233143      -0.31669584
H        8.73634600       9.94053900      11.95354700      -0.00759904      -0.00104236      -0.01428139      -0.70976059       0.00959973       0.17080030      -0.70216155       0.01064209       0.18508169
H        9.95430500      10.85886200      12.06390000      -0.00434733      -0.01546818      -0.00073231       0.09315138      -0.22727895       0.17953902       0.09749871      -0.21181077       0.18027133
O        8.76928800      13.52760600      10.70098800       0.02805388      -0.00683238      -0.01054868      -2.64718163       0.67786060      -0.37746718      -2.67523551       0.68469298      -0.36691850
H        9.62794800      13.24474500      10.79296700      -0.02133967       0.00855633       0.00183853       3.83260725      -0.48825381       1.13432869       3.85394692      -0.49681014       1.13249016
H        8.61379300      12.98873300       9.93220200      -0.00420040       0.00703189       0.01171126      -1.12469024      -0.16031405      -0.75195841      -1.12048984      -0.16734594      -0.76366967
O       13.37586500      11.95411300      15.16985400      -0.02043386      -0.00885776      -0.01776082      -0.47648289      -0.35473302      -0.01319290      -0.45604903      -0.34587526       0.00456792
H       14.29201300      11.69250100      15.13449400       0.00656234       0.00159439       0.00205664       0.46979021       0.12047203       0.04234947       0.46322787       0.11887764       0.04029283
H       13.30507600      12.84700800      14.83340200      -0.00298719       0.00593258       0.00051371       0.19061697       0.35718344      -0.00539736       0.19360416       0.35125086      -0.00591107
O        9.37010700      12.18576200      14.74234400       0.00071741       0.01841492       0.01476968      -0.32635920       2.72292346       1.56693662      -0.32707661       2.70450854       1.55216694
H        9.18832000      13.01755200      15.32206300      -0.00338523      -0.00654522      -0.00964395       0.73647435      -2.09390894      -1.55717985       0.73985958      -2.08736372      -1.54753590
H        8.59598300      11.66552500      14.93579600      -0.00047865      -0.00512811       0.00460068      -0.51561591      -0.55359002       0.00678684      -0.51513726      -0.54846191       0.00218616
O       11.74441300      13.01646100      10.05653500       0.00928363       0.01284933       0.00028886      -0.19124150      -0.43161199      -0.03981626      -0.20052513      -0.44446132      -0.04010512
H       12.12872400      13.91285400      10.05736900      -0.00921396      -0.00711639       0.00002501      -0.10443518      -0.34595589      -0.44715231      -0.09522122      -0.33883950      -0.44717732
H       11.68720200      12.61042300       9.16562100      -0.00100817      -0.00418441       0.00440979       0.34531291       0.87589701       0.81185067       0.34632108       0.88008142       0.80744088
O       10.94167100       9.89663800      15.54243700      -0.00624929      -0.00024882       0.00227613      -0.10122737      -1.23854116      -0.59042483      -0.09497808      -1.23829234      -0.59270096
H       10.75823000       9.39277600      14.72222300       0.01042740       0.00049398      -0.00917245       0.22540174       0.42497829       0.68634992       0.21497434       0.42448431       0.69552237
H       10.62557100      10.77337400      15.33623800      -0.00284678       0.00544493      -0.00142725      -0.06440845       0.68094556      -0.15198054      -0.06156167       0.67550063      -0.15055329
27
Properties=species:S:1:pos:R:3:REF_forces:R:3:DFT_forces:R:3:FOUNDATION_forces:R:3 REF_energy=-0.0014299730646598618 charge=0 spin=1 external_field="0.0 0.0 0.0" config_type=ORCA_DFT source_file=C_DFTprod_cutcluster_0047.out orca_step=0 DFT_energy=-18719.310023723065 FOUNDATION_energy=-18719.30859375 pbc="F F F"
O       10.49265800      10.65737400      15.07677100      -0.00640244      -0.00535970      -0.00510523       0.34073552       0.42015634       0.65007695       0.34713796       0.42551604       0.65518218
H       11.38870500      10.60591000      15.50296200      -0.00140641      -0.00613439       0.00338399      -1.51938746       0.26961053      -0.44212488      -1.51798105       0.27574492      -0.44550887
H        9.98507500      11.44378200      15.40524100      -0.00468081       0.01579404      -0.00759851       1.10438603      -0.83466464      -0.41400420       1.10906684      -0.85045868      -0.40640569
O        8.82986300      13.38173900      10.08032300       0.00199962       0.00752090       0.00054703       1.25733233       0.30791904      -0.77496865       1.25533271       0.30039814      -0.77551568
H        9.78519800      13.39942000       9.83658700      -0.00024921      -0.00583015       0.00147284      -1.09738666       0.07712539       0.26713250      -1.09713745       0.08295554       0.26565966
H        8.82358700      12.74800200      10.79006100       0.00034205      -0.00573601      -0.00214743      -0.18625700      -0.41980605       0.57867736      -0.18659905      -0.41407004       0.58082479
O       11.74694100      12.81960100      11.63233000      -0.01028384      -0.01233912       0.01095495      -1.67092778       1.05532526       0.33942339      -1.66064394       1.06766438       0.32846844
H       12.45839000      13.10785800      11.09639500      -0.00012203       0.00782368       0.00396389       1.14085929       0.46154750      -0.71881884       1.14098132       0.45372382      -0.72278273
H       12.00000000      12.00000000      12.00000000       0.00258507       0.00019586      -0.01144376       0.47074203      -1.67127812       0.47009606       0.46815696      -1.67147398       0.48153982
O       12.74038200       7.45845300      14.06242400      -0.00313673      -0.01064154      -0.02986573      -0.83958850       1.08968559      -1.35792016      -0.83645177       1.10032713      -1.32805443
H       13.33214800       6.77146100      13.76961300       0.00552129       0.00006549       0.01793730       0.29659333      -0.37642784      -0.16872496       0.29107204      -0.37649333      -0.18666226
H       12.42938300       7.89552200      13.20993700      -0.00201044       0.00692877       0.00102527       0.64779844      -0.64830217       1.63617546       0.64980888      -0.65523094       1.63515019
O       11.24186900       9.50318300      12.54335600      -0.00793164      -0.02718328       0.02328377      -0.43633573       0.08037464       0.25280533      -0.42840409       0.10755792       0.22952156
H       10.68900500       8.75816500      12.26591500       0.00709236       0.01838442       0.00473982      -0.02398433       0.42743220       0.14374365      -0.03107669       0.40904778       0.13900383
H       10.74204000       9.93796600      13.27566600       0.00947789       0.00047650      -0.01736992       0.47599438      -0.40184597      -0.42781010       0.46651649      -0.40232247      -0.41044018
O       12.46103600       7.24081800      10.64605200       0.00071001      -0.01615615      -0.00158468      -2.70723248       1.38332729       0.32323721      -2.70794249       1.39948344       0.32482189
H       11.44689800       7.15509200      10.74213600       0.00180684       0.00512534       0.00194275       2.42489468      -0.21530851      -0.34839011       2.42308784      -0.22043385      -0.35033286
H       12.52035200       8.22945400      10.58659400      -0.00159490       0.01621177      -0.00016070       0.27922645      -1.16356609       0.02073862       0.28082135      -1.17977786       0.02089932
O       15.62944700      12.64049300      14.70205300       0.00310404      -0.00047203       0.00297222      -0.65080606       1.04247026       0.80036226      -0.65391010       1.04294229       0.79739004
H       15.06324900      13.03537900      15.39730700       0.00133074       0.00471313      -0.00211600       0.61450291       0.08300139      -0.60784010       0.61317217       0.07828826      -0.60572410
H       15.38898200      11.73081400      14.79538900       0.00641839      -0.00269421       0.00049596       0.03772518      -1.14142164      -0.20090915       0.03130679      -1.13872743      -0.20140511
O        7.90443000      10.51733200      13.02681100      -0.01071286       0.02107498      -0.00417959       0.27724886       0.62649330      -0.08243004       0.28796172       0.60541832      -0.07825045
H        7.58915800       9.61952700      12.95797600       0.00826380      -0.00562724       0.01425166       0.00115849      -0.36173275       0.20673167      -0.00710531      -0.35610551       0.19248001
H        8.57109200      10.55758800      13.72534600       0.00732206      -0.00616224      -0.00112393      -0.25772627      -0.27294473      -0.11354573      -0.26504833      -0.26678249      -0.11242180
O       10.25242700      13.54550400      14.34170300      -0.02027668       0.00145760       0.00365562      -0.57099326       0.18788384       2.18919439      -0.55071658       0.18642624       2.18553877
H       10.81085900      13.34098900      13.60229300       0.00951297       0.00719579      -0.01096229       0.89497609      -0.08784864      -0.45769594       0.88546312      -0.09504443      -0.44673365
H       10.75061200      13.56527400      15.20038500       0.00332099      -0.00863249       0.00303081      -0.30354852       0.08279462      -1.76321193      -0.30686951       0.09142711      -1.76624274
27
Properties=species:S:1:pos:R:3:REF_forces:R:3:DFT_forces:R:3:FOUNDATION_forces:R:3 REF_energy=-0.004983818420441821 charge=0 spin=1 external_field="0.0 0.0 0.0" config_type=ORCA_DFT source_file=C_DFTprod_cutcluster_0048.out orca_step=0 DFT_energy=-18719.97764006842 FOUNDATION_energy=-18719.97265625 pbc="F F F"
O       11.56157300      13.97587000      14.70857200      -0.01923491       0.02892272       0.01439480      -0.23847328       1.21449260      -0.84693332      -0.21923837       1.18556988      -0.86132812
H       11.95267700      13.11563800      14.65406900       0.00946860      -0.00846586      -0.01467208       0.27023335      -0.86938307      -0.28470455       0.26076475      -0.86091721      -0.27003247
H       11.61059300      14.32770700      13.79078100       0.01076163      -0.02534129       0.00338614       0.03499755      -0.45304440       0.89410865       0.02423592      -0.42770311       0.89072251
O        7.20218700      11.22842200      12.29854300      -0.00055758       0.01058901      -0.01131575       1.32593831       1.29541422       0.37925209       1.32649589       1.28482521       0.39056784
H        8.06829000      11.70885500      12.04537600      -0.00694803      -0.01330317       0.00277234      -1.77100114      -0.85076828       0.37492616      -1.76405311      -0.83746511       0.37215382
H        6.83956600      11.77629100      13.02840400       0.00376184      -0.00595842       0.00331766       0.37764083      -0.57498412      -0.66669368       0.37387899      -0.56902570      -0.67001134
O        8.86798400      13.49952500      15.74352300       0.01261999       0.00359601      -0.00473991       0.20608226      -0.00639973       2.71464857       0.19346227      -0.00999574       2.71938848
H        9.57845100      13.56289400      15.09928900      -0.00774031      -0.00925228       0.00469824       0.53673459       0.12796515       0.40812754       0.54447490       0.13721743       0.40342930
H        9.27025800      13.55485500      16.69382500      -0.00687989       0.00891735       0.00260336      -0.80379751      -0.11845500      -3.04969542      -0.79691762      -0.12737235      -3.05229878
O       12.82554500      12.25720600      16.85247300       0.01895976       0.00382141       0.01137918       1.54482770       1.12002281       0.07909444       1.52586794       1.11620140       0.06771526
H       13.26549800      13.03912200      16.42504400      -0.01063428       0.00770719      -0.01244537      -0.83514158      -0.87427192       0.42041798      -0.82450730      -0.88197911       0.43286335
H       13.44201700      12.09571600      17.59994400      -0.00608782      -0.00355104      -0.00419162      -0.69526450      -0.11180880      -0.54858182      -0.68917668      -0.10825776      -0.54439020
O       10.97140600       9.81820000      13.25701700       0.01353283      -0.00262342       0.00582272      -0.87499224      -0.74846510       1.66442746      -0.88852507      -0.74584168       1.65860474
H        9.99795200       9.67166100      13.43761600      -0.01131294       0.01939103       0.00039871       1.47045674       0.60807911      -0.28653924       1.48176968       0.58868808      -0.28693795
H       11.41133800       9.56974100      14.12832700       0.00997528       0.00285969       0.00384904      -0.65719232       0.24895269      -0.93307166      -0.66716760       0.24609300      -0.93692070
O       12.00000000      12.00000000      12.00000000      -0.00699143      -0.00318539       0.00109851       0.93875380      -0.22921371      -0.77015627       0.94574523      -0.22602832      -0.77125478
H       11.79155400      11.20311100      12.54700500      -0.01229230      -0.01769974       0.00237831      -0.11235027       0.30268607      -0.75323985      -0.10005797       0.32038581      -0.75561816
H       12.61142600      11.72314900      11.26303900       0.00817996       0.00515656      -0.00265271      -1.06228894       0.24405546       1.34224194      -1.07046890       0.23889890       1.34489465
O       11.89318400       9.73167600      15.85028400      -0.01599903      -0.00842277      -0.01818307      -0.34878997      -0.72377531      -0.44415193      -0.33279094      -0.71535254      -0.42596886
H       12.25950900       9.27100300      16.61340100       0.01267113      -0.00452396      -0.00004341       0.04445535       0.36354676      -0.18925861       0.03178422       0.36807072      -0.18921520
H       12.17403300      10.64772300      15.84304800      -0.00415571      -0.00065831       0.00061304       0.33644481       0.32708430       0.71502472       0.34060052       0.32774261       0.71441168
O        9.21062500      12.84171900      11.30057400       0.02548499      -0.00187947       0.00971653      -0.03992024       1.33998476       0.02954877      -0.06540523       1.34186423       0.01983224
H       10.19011500      12.87764400      11.37599600       0.00164122      -0.00451117       0.00173528      -0.65308946       0.04073960       0.09281200      -0.65473068       0.04525077       0.09107672
H        8.81905000      13.75691200      11.34088200      -0.01953873       0.01246819      -0.00465472       0.96052560      -1.43463412      -0.07844467       0.98006433      -1.44710231      -0.07378995
O       10.59879300       7.52103000      11.71601800       0.01051617       0.00120780       0.00353596      -1.68603301      -0.88898876      -0.20387430      -1.69654918      -0.89019656      -0.20741026
H       10.82421600       8.26247700      12.27407100      -0.00653195       0.00016801       0.00551805       0.29871691       0.55070262       0.23467139       0.30524886       0.55053461       0.22915334
H        9.62076600       7.41131800      11.84723900      -0.00266850       0.00457100      -0.00431977       1.43252659       0.10046617      -0.29395641       1.43519509       0.09589517      -0.28963664
27
Properties=species:S:1:pos:R:3:REF_forces:R:3:DFT_forces:R:3:FOUNDATION_forces:R:3 REF_energy=0.0032839910018083174 charge=0 spin=1 external_field="0.0 0.0 0.0" config_type=ORCA_DFT source_file=C_DFTprod_cutcluster_0049.out orca_step=0 DFT_energy=-18720.389294134 FOUNDATION_energy=-18720.392578125 pbc="F F F"
O       14.60867000      13.48923900      12.11647300      -0.01239227       0.00576944      -0.00293205      -0.04594320       2.22477908       0.63135227      -0.03355093       2.21900964       0.63428432
H       14.02585100      13.50092500      12.88793700       0.01587021       0.01258010       0.00218560      -0.22329565      -0.85105115       0.26058693      -0.23916586      -0.86363125       0.25840133
H       14.65482500      14.47514100      12.00589500       0.01008254       0.00039784       0.00530465       0.35989827      -1.22294768      -0.34879182       0.34981573      -1.22334552      -0.35409647
O       14.17880600       9.62705800       9.38575700      -0.01935366      -0.00821197      -0.00333493       0.56429121      -0.07895257       0.41540659       0.58364487      -0.07074060       0.41874152
H       14.10635100      10.59918200       9.37560300       0.01053883       0.01052184      -0.00871433      -0.12775658       0.01703891       0.02017154      -0.13829541       0.00651707       0.02888587
H       14.89357800       9.48688700      10.03752400       0.00436588      -0.00062280       0.00677044      -0.61215971      -0.00946757      -0.45063739      -0.61652559      -0.00884477      -0.45740783
O       13.01003300      13.05270900      15.07188200      -0.00122203       0.00512276       0.01720574       0.11819290      -0.49698862      -0.33464453       0.11941493      -0.50211138      -0.35185027
H       13.20491000      13.43315800      15.91492700       0.00217950       0.00048621      -0.00724543       0.77414035       0.33873947       0.93627464       0.77196085       0.33825326       0.94352007
H       12.14057100      13.41955400      14.94357600      -0.00366018      -0.00759327      -0.01125105      -0.94039247       0.25122601      -0.72325297      -0.93673229       0.25881928      -0.71200192
O       11.36934200      12.76283700      12.04100500      -0.01347501       0.00113209       0.00828931       1.27389162      -1.18770854       1.32943568       1.28736663      -1.18884063       1.32114637
H       11.15161200      12.82652200      11.14345300       0.01183100       0.00887913       0.00050340      -0.79780345       0.47504497      -2.11870923      -0.80963445       0.46616584      -2.11921263
H       12.00000000      12.00000000      12.00000000      -0.01024821      -0.03409001      -0.00582580      -0.39891368       0.22843924       0.67202492      -0.38866547       0.26252925       0.67785072
O       13.42520800       9.93300700      15.75880600       0.00681603      -0.00809714       0.01360042      -1.41598761       1.44820765       0.62127782      -1.42280364       1.45630479       0.60767740
H       12.63177300       9.59353400      16.19605800      -0.00149015       0.00386067      -0.00700167       0.25175833      -1.08216218      -0.10923183       0.25324848      -1.08602285      -0.10223016
H       13.11949600      10.86736400      15.87911800       0.00023824      -0.00098168      -0.00644054       1.15908116      -0.28833299      -0.78510960       1.15884292      -0.28735131      -0.77866906
O       11.58681900       8.40771000      10.39483000       0.00987474      -0.00725115      -0.00357337       1.92212216      -0.26264659      -1.25538261       1.91224742      -0.25539544      -1.25180924
H       11.48064000       7.45142500      10.50578400      -0.01047002       0.00352729       0.00339880      -0.03175261       0.29382158      -0.05723533      -0.02128259       0.29029429      -0.06063413
H       12.40982000       8.49457000       9.78509900       0.00710698      -0.00376391      -0.00226324      -1.67672531       0.13731867       1.42855305      -1.68383229       0.14108258       1.43081629
O       12.89444200      10.18740600      12.29612500       0.02177871       0.00786888       0.00917723       1.14377929       1.05076634       2.05834153       1.12200058       1.04289746       2.04916430
H       12.47967100       9.40076900      11.96420300      -0.00015304       0.00324266       0.00710293      -0.49298552      -0.84882344      -0.39595876      -0.49283248      -0.85206610      -0.40306169
H       13.22203200      10.02034000      13.23049700      -0.02185334      -0.00025522      -0.00869833      -0.73115273       0.10946159      -1.61464797      -0.70929939       0.10971681      -1.60594964
O       14.23783700      12.52581500       9.69811200       0.01248330       0.00570866       0.00726856       0.83296925      -0.55139867       2.07053031       0.82048595      -0.55710733       2.06326175
H       14.37482200      12.82628200      10.67839700      -0.01539451      -0.02063595      -0.02717976      -0.42787916      -0.59901916      -1.96410684      -0.41248465      -0.57838321      -1.93692708
H       13.75283200      13.21374000       9.28076300       0.00308631       0.01011555       0.01033644      -0.59136714       0.85134827      -0.53105744      -0.59445345       0.84123272      -0.54139388
O       10.81870200      14.86357800      13.62494000       0.00704598       0.00715844      -0.01755435       0.98587405      -0.25915529       0.43999045       0.97882807      -0.26631373       0.45754480
H        9.95448100      15.20307300      13.47890200      -0.01304344       0.00346023       0.01320897      -1.07625178       0.49150652      -0.04036509      -1.06320834       0.48804629      -0.05357406
H       10.88857200      14.09418200      13.03970400      -0.00054230       0.00167127       0.00766257       0.20436816      -0.17904387      -0.15481436       0.20491046      -0.18071514      -0.16247693
27
Properties=species:S:1:pos:R:3:REF_forces:R:3:DFT_forces:R:3:FOUNDATION_forces:R:3 REF_energy=0.00503723110887222 charge=0 spin=1 external_field="0.0 0.0 0.0" config_type=ORCA_DFT source_file=C_DFTprod_cutcluster_0050.out orca_step=0 DFT_energy=-18719.48910339389 FOUNDATION_energy=-18719.494140625 pbc="F F F"
O        8.35389500      12.50419700      15.11590400      -0.00748566      -0.00651738      -0.00541093       0.02669978      -0.12187472       0.41269855       0.03418544      -0.11535734       0.41810948
H        8.64055300      11.59502800      15.22350000       0.00254919       0.00010598       0.00774208      -0.15437506      -0.12218690      -0.05843897      -0.15692425      -0.12229288      -0.06618105
H        7.49505700      12.48380900      14.68358200       0.00659554       0.00407184       0.00432492       0.08778215      -0.08098143      -0.18866988       0.08118661      -0.08505327      -0.19299480
O       10.38794100      10.56975400       7.84261100       0.00978861      -0.00824934      -0.00168519       0.13288326      -0.15777072       0.53359301       0.12309465      -0.14952138       0.53527820
H       10.79284000      11.43138000       7.99857200      -0.00019875      -0.00495031      -0.00046690      -0.06653095       0.36296353      -0.31369765      -0.06633220       0.36791384      -0.31323075
H       10.55462700      10.14183800       8.69568900      -0.01411648       0.01018897       0.00143508      -0.04057211      -0.08402895      -0.22238954      -0.02645563      -0.09421792      -0.22382462
O       11.05592500      12.28299500      12.15828400      -0.00309477       0.00278492       0.01514257       0.70063569      -1.41736798      -1.16360461       0.70373046      -1.42015290      -1.17874718
H       10.57998200      11.60144400      11.58789600       0.01774300      -0.00272354      -0.00719000       0.90113480       0.93946425       0.96717339       0.88339180       0.94218779       0.97436339
H       12.00000000      12.00000000      12.00000000       0.00094537      -0.00323838      -0.01636731      -1.45621010       0.68388063       0.39218510      -1.45715547       0.68711901       0.40855241
O       11.20105400       7.57452500      11.44721300       0.01470168       0.00325894      -0.01194133       0.88770439      -2.61380887       1.54788886       0.87300271      -2.61706781       1.55983019
H       10.66846000       7.01438200      12.12950700      -0.00081669       0.00642980       0.01078727       1.70900191       1.40205074      -1.84414337       1.70981860       1.39562094      -1.85493064
H       12.13146500       7.15421000      11.35774900      -0.01249498      -0.00771620      -0.00394585      -2.47873729       0.93574283       0.39030475      -2.46624231       0.94345903       0.39425060
O        7.85951500      15.46213300      10.67231500      -0.00800255      -0.01501885       0.00009105       0.42428687       0.08746174      -0.42189204       0.43228942       0.10248059      -0.42198309
H        8.25303900      14.64230400      10.99004200       0.00616167       0.01550960       0.00288787      -0.22849200       0.09698865       0.25104150      -0.23465367       0.08147905       0.24815363
H        6.91893900      15.42083300      10.83819000      -0.00032901       0.00616075      -0.00133437      -0.15958319      -0.19997080       0.20100012      -0.15925418      -0.20613155       0.20233449
O       10.78589300      13.53617000       8.03709800      -0.00243040       0.00073402      -0.00249729      -0.68284371      -0.14501907      -0.10825646      -0.68041331      -0.14575309      -0.10575917
H       11.28569400      14.31848600       8.25635700      -0.00415647       0.00328751       0.00121039       0.32984310       0.30234350       0.15063035       0.33399957       0.29905599       0.14941996
H        9.86733800      13.84931700       8.00537300       0.00624047       0.00670902      -0.00249963       0.34361644      -0.20524984       0.00279535       0.33737597      -0.21195886       0.00529498
O       10.32344300       9.99448700      10.83952000      -0.02487755      -0.03022393      -0.00292601       0.70201540       0.75725154       0.06649603       0.72689295       0.78747547       0.06942204
H       10.72821400       9.15604300      11.12925300      -0.00177438       0.00929705       0.01976284      -0.33074118      -0.14778193      -0.05213689      -0.32896680      -0.15707898      -0.07189973
H        9.45351500       9.84863600      10.50276200       0.01968800       0.00417516      -0.01266087      -0.79222883      -0.56463101      -0.30672569      -0.81191683      -0.56880617      -0.29406482
O        7.46506800      11.79883500      12.17656400      -0.00977515       0.00682311       0.00299822      -1.55154096      -0.01902807      -1.48737038      -1.54176581      -0.02585118      -1.49036860
H        7.05275500      11.71796200      11.27757000       0.00354794      -0.00825118      -0.01352663       0.15459577       0.19561453       1.30889611       0.15104783       0.20386571       1.32242274
H        8.36189900      11.60291800      11.96320900       0.00401893      -0.00610671       0.00225822       1.37552908      -0.13382356       0.22926117       1.37151015      -0.12771685       0.22700295
O        9.71834700      14.59500800      14.03958100      -0.01196251      -0.00878325       0.00340143       0.86872270      -1.43347564      -0.89089873       0.88068521      -1.42469239      -0.89430016
H       10.04675100      13.88627100      13.42057700       0.00233432       0.01271157       0.01925357      -0.24467761       1.27681594       0.28238963      -0.24701193       1.26410437       0.26313606
H        9.58777600      13.99309300      14.78346300       0.00720039       0.00953062      -0.00884317      -0.45791829       0.40642171       0.32187031      -0.46511868       0.39689109       0.33071348
27
Properties=species:S:1:pos:R:3:REF_forces:R:3:DFT_forces:R:3:FOUNDATION_forces:R:3 REF_energy=-0.00332865233940538 charge=0 spin=1 external_field="0.0 0.0 0.0" config_type=ORCA_DFT source_file=C_DFTprod_cutcluster_0052.out orca_step=0 DFT_energy=-18719.62246927734 FOUNDATION_energy=-18719.619140625 pbc="F F F"
O       13.46124400      11.95065200      13.70980400      -0.00702067      -0.00784025      -0.00772840       0.08746806       0.03420724      -0.25736359       0.09448873       0.04204749      -0.24963519
H       14.10318100      11.78676000      14.41472800       0.00748406       0.01659781      -0.00277961      -0.01278877       0.14888709      -0.22070361      -0.02027283       0.13228928      -0.21792400
H       13.89731100      11.71913500      12.87549100      -0.00399749      -0.01049906       0.00017436       0.28204994      -0.15214427       0.15913135       0.28604743      -0.14164521       0.15895699
O       11.42348200      11.36787600      11.53437700      -0.02584055      -0.02605596      -0.00353083       2.01984856      -0.31392488       0.36400139       2.04568911      -0.28786892       0.36753222
H       10.65327500      11.87929600      11.65173900       0.01487916       0.03508621       0.00167882      -2.35467965       0.93324989      -0.28293553      -2.36955881       0.89816368      -0.28461435
H       12.00000000      12.00000000      12.00000000       0.01282380       0.02066037       0.01420345       0.21979391      -0.72037128      -0.39477179       0.20697011      -0.74103165      -0.40897524
O       14.61041800      14.16977100      10.62704300       0.00291432       0.00600314      -0.00545313       0.04963623      -0.92166054      -1.12352969       0.04672191      -0.92766368      -1.11807656
H       14.71738800      13.52469900       9.88965000      -0.00295409      -0.00262477      -0.00003298      -0.01639022       0.27707819       1.01273457      -0.01343613       0.27970296       1.01276755
H       14.47245600      14.96779200      10.11634800       0.00181445      -0.00399351      -0.00074119      -0.05811347       0.59680641       0.16705703      -0.05992792       0.60079992       0.16779822
O       11.22920000      14.81096000       8.72508100       0.00670293       0.00571336      -0.00517375       0.08023992       1.18371500       0.05132385       0.07353699       1.17800164       0.05649760
H       10.60763200      14.09316700       8.70264500       0.00407594      -0.00292934       0.00914844      -0.04941069      -0.67470426       0.04007080      -0.05348663      -0.67177492       0.03092236
H       12.12382800      14.48594100       8.64893500      -0.00427382      -0.00201527       0.00657566      -0.03662701      -0.52200124      -0.02526747      -0.03235319      -0.51998597      -0.03184313
O       11.91860600      14.37687400      13.14904900       0.00002733       0.00167253       0.00283734      -0.68873045       2.12710502      -0.53764548      -0.68875778       2.12543249      -0.54048282
H       12.56040500      13.67016500      13.12887400      -0.00920586       0.01042221      -0.00767226       0.89871283       0.16573522      -0.07959185       0.90791869       0.15531301      -0.07191959
H       12.18970200      15.21664600      12.66514800      -0.00248597      -0.01450159       0.00130188      -0.01615954      -2.14437224       0.83964800      -0.01367357      -2.12987065       0.83834612
O        9.53015000      13.41060600      12.20413400      -0.00252411      -0.02234151       0.00179672       0.56159541       1.12388132      -1.71811354       0.56411952       1.14622283      -1.71991026
H        9.19463100      12.80230500      12.81317300      -0.00610529       0.00291921      -0.00253239      -0.91189544      -1.25214873       1.65133283      -0.90579015      -1.25506794       1.65386522
H       10.30012100      13.83920100      12.61345800       0.01118662       0.00380023      -0.00520820       0.09716194       0.05090553       0.14973463       0.08597532       0.04710530       0.15494283
O       14.32918700       9.45173600      11.17329200       0.01537131      -0.00860915      -0.00717673       0.32965319       0.12894639       0.06193798       0.31428188       0.13755554       0.06911471
H       15.00572500       8.78543300      11.37411300      -0.00179497       0.00937178       0.00278048      -0.59587351       0.15067396      -0.15044354      -0.59407854       0.14130218      -0.15322402
H       13.53556500       8.99522100      10.86430600      -0.00658473       0.00413451       0.00473227       0.19634611      -0.09474063       0.25208301       0.20293084      -0.09887514       0.24735074
O       10.75353700       8.06454600      12.21216400      -0.01107136      -0.01498356      -0.00912828       0.25653657       1.57887230       0.72424089       0.26760793       1.59385586       0.73336917
H       11.08777800       8.69008200      12.90880800       0.01030871       0.00809799       0.00729561       0.19063677      -1.21661402      -0.26763391       0.18032806      -1.22471201      -0.27492952
H       10.46792000       8.76140400      11.60905400       0.00272729       0.00662790      -0.00077144      -0.22413136      -0.33889137      -0.53332309      -0.22685865      -0.34551927      -0.53255165
O       12.50469600       9.36285600      14.28946600       0.01708970      -0.00982163      -0.01587658       0.49942145       1.43246915      -1.00634723       0.48233175       1.44229078      -0.99047065
H       12.73147500      10.29611000      13.91691100      -0.02124955      -0.01683956       0.00978343      -0.97241880      -2.06434279       1.30150620      -0.95116925      -2.04750323       1.29172277
H       11.93033200       9.41880000      15.06175400      -0.00229793       0.01194823       0.01149716       0.16811787       0.48338342      -0.17713226       0.17041580       0.47143519      -0.18862942
27
Properties=species:S:1:pos:R:3:REF_forces:R:3:DFT_forces:R:3:FOUNDATION_forces:R:3 REF_energy=0.005225120585237164 charge=0 spin=1 external_field="0.0 0.0 0.0" config_type=ORCA_DFT source_file=C_DFTprod_cutcluster_0053.out orca_step=0 DFT_energy=-18719.820946754415 FOUNDATION_energy=-18719.826171875 pbc="F F F"
O       13.73383700       8.89344000      13.55816500      -0.00377906       0.01320997      -0.00871969       1.47755062      -0.00578154      -0.75356335       1.48132968      -0.01899151      -0.74484366
H       13.91550400       8.64228500      12.62608300       0.00799804      -0.00412599      -0.01674806       0.48807358       0.29280841       0.48860158       0.48007554       0.29693440       0.50534964
H       12.80740900       8.77376200      13.52489300      -0.02209647      -0.00791163       0.01319796      -1.80045302      -0.17054159       0.27504820      -1.77835655      -0.16262996       0.26185024
O       11.95231800      11.33591000      11.18974700      -0.00715108       0.01780373       0.01526063      -0.36174200       3.48207170       1.32341009      -0.35459092       3.46426797       1.30814946
H       11.57582500      12.00724900      10.55152900       0.00071745      -0.00263726      -0.02255177       0.40075402      -1.40332770       0.07037706       0.40003657      -1.40069044       0.09292883
H       12.00000000      12.00000000      12.00000000       0.01522960      -0.01578650      -0.00253669       0.02387696      -2.10403189      -1.21660939       0.00864736      -2.08824539      -1.21407270
O       11.31539600      12.95887600       8.69843200       0.00176173       0.00116489       0.00024595       1.10817486       0.27209899      -2.22478566       1.10641313       0.27093410      -2.22503161
H       10.71299200      12.79619700       7.93230400      -0.00131408       0.00631927       0.00411912       0.39227262       0.07999320       1.10095211       0.39358670       0.07367393       1.09683299
H       12.17791700      13.12491700       8.20042000       0.00109541      -0.00915167       0.00517807      -1.47085166      -0.34577355       1.27375720      -1.47194707      -0.33662188       1.26857913
O       11.40917300       8.50415700      11.89338900      -0.01169221      -0.00456846       0.02043877      -2.91394250       0.65186870       1.61285529      -2.90225029       0.65643716       1.59241652
H       10.52685800       8.40580400      12.42664000       0.00346923       0.00442891      -0.00935323       2.44489694       0.03847666      -1.52097578       2.44142771       0.03404775      -1.51162255
H       11.38597000       9.47103700      11.69825100      -0.00496032      -0.01915962      -0.00174541       0.33898095      -0.62703354      -0.14364389       0.34394127      -0.60787392      -0.14189848
O       12.38006800      12.85384400      13.63938300       0.01138942       0.01289589       0.01259689       2.14493649      -0.24256807       0.00235786       2.13354707      -0.25546396      -0.01023903
H       12.49495800      13.81492600      13.41879200      -0.00903768       0.00480075       0.00101660      -0.09938070      -0.78110002       0.34481977      -0.09034302      -0.78590077       0.34380317
H       13.31049400      12.50218900      13.85471800      -0.00544905       0.00222062      -0.00700242      -2.14043855       0.74622392      -0.42243845      -2.13498950       0.74400330      -0.41543603
O       12.33929600      15.45992600      12.83583900       0.00617590      -0.00993275      -0.00919897       1.91058114       1.72502971       2.77741974       1.90440524       1.73496246       2.78661871
H       12.63045700      16.36481600      13.17192000      -0.01296481      -0.00056243       0.00350386      -0.47957032      -1.94081593      -0.40408859      -0.46660551      -1.94025350      -0.40759245
H       11.90552400      15.66773300      12.05504100       0.01225246       0.00735411       0.00225824      -1.41822945       0.36524945      -2.46449477      -1.43048191       0.35789534      -2.46675301
O       14.78765700      11.91045000      10.77827700      -0.01008542       0.00882113      -0.00477110      -2.08890326      -1.83039558      -0.57067274      -2.07881784      -1.83921671      -0.56590164
H       14.93909600      12.65499200      11.32243100       0.00045915      -0.01039792      -0.00222445       0.33972673       1.15858792       0.92825830       0.33926758       1.16898584       0.93048275
H       13.82859400      11.62536100      10.98340000       0.00914411       0.01014132      -0.00152492       1.49967126       0.60579581      -0.47489637       1.49052715       0.59565449      -0.47337145
O       14.57211500       8.92474500      10.74523600       0.05043192       0.00038263       0.01270623       1.17978759       1.27053854      -0.42564662       1.12935567       1.27015591      -0.43835285
H       14.81177700       9.88814200      10.75036000      -0.00872680       0.00090354      -0.00154856      -0.64675256      -0.76353306       0.28199106      -0.63802576      -0.76443660       0.28353962
H       15.40869200       8.60683600      10.36940100      -0.01705633      -0.00414934      -0.01200999      -0.40914909      -0.52207246       0.14863189      -0.39209276      -0.51792312       0.16064188
O       10.49229600      12.62305500      16.10956900      -0.00410207      -0.00074180       0.00571567      -0.16308421      -0.09103557       0.42180920      -0.15898214      -0.09029377       0.41609353
H       10.91715100      11.90354200      16.58096600       0.00332129       0.00189757      -0.00165683      -0.02040350      -0.05784648       0.30535889      -0.02372479      -0.05974405       0.30701572
H       10.79055100      12.47176200      15.21705700      -0.00503066      -0.00321978       0.00535452       0.26361698       0.19711395      -0.73383260       0.26864764       0.20033373      -0.73918712
27
Properties=species:S:1:pos:R:3:REF_forces:R:3:DFT_forces:R:3:FOUNDATION_forces:R:3 REF_energy=-0.01811423129765899 charge=0 spin=1 external_field="0.0 0.0 0.0" config_type=ORCA_DFT source_file=C_DFTprod_cutcluster_0054.out orca_step=0 DFT_energy=-18719.262254856298 FOUNDATION_energy=-18719.244140625 pbc="F F F"
O        9.07490500      12.13479100      11.35625700       0.00412933      -0.00678485      -0.00713361       1.38145820       1.74377829      -2.49384273       1.37732887       1.75056314      -2.48670912
H        8.26193400      12.26444000      11.78701400       0.00359934       0.00002299       0.00133969      -1.71907050      -0.14605549       1.31350888      -1.72266984      -0.14607848       1.31216919
H        9.02815300      12.91149400      10.70856000       0.00192090       0.00897160       0.01060814       0.47405078      -1.63741252       1.12897164       0.47212988      -1.64638412       1.11836350
O       11.83998900      14.18754700      16.49875700      -0.00897816      -0.01331826       0.00621629      -1.12208262      -0.50213258      -1.82281077      -1.11310446      -0.48881432      -1.82902706
H       11.68130500      13.52056400      15.74569800       0.01942720       0.00832572      -0.01135238       0.31358143       1.68349960       1.66029231       0.29415423       1.67517388       1.67164469
H       11.23039000      14.93908500      16.26845900      -0.00093397       0.00516588      -0.00713739       0.76932189      -1.13097304       0.22913416       0.77025586      -1.13613892       0.23627155
O       11.50109700      10.52528300      14.83784400       0.00149164      -0.00375865       0.00939361      -0.88115790      -0.17521992       1.77242414      -0.88264954      -0.17146127       1.76303053
H       10.78570500      11.06736600      15.24008200       0.00062446       0.00034494      -0.00340809       0.82104020      -0.51162278      -0.76729597       0.82041574      -0.51196772      -0.76388788
H       11.73100400      10.85462400      13.98403000      -0.00394923      -0.01234871      -0.00862432      -0.00930174       0.80891138      -1.10651017      -0.00535251       0.82126009      -1.09788585
O       12.24792500      14.23880600      13.61029700      -0.04379848       0.00075912      -0.01291332       2.32429024      -0.43670005       1.60006323       2.36808872      -0.43745917       1.61297655
H       12.32924300      13.37234300      13.15834900       0.01011374       0.01879546       0.00758313       0.16781011       0.42043397       0.06337698       0.15769637       0.40163851       0.05579385
H       13.03572500      14.42026700      14.25222700      -0.00777455       0.01117017       0.00762676      -1.95679184      -0.96236805      -1.91353298      -1.94901729      -0.97353822      -1.92115974
O       12.00000000      12.00000000      12.00000000      -0.01090240      -0.00121528       0.00816006       1.79515696      -1.98216015      -1.26245278       1.80605936      -1.98094487      -1.27061284
H       11.17176000      11.81307100      11.51879900       0.00945691      -0.01707858      -0.00481335       0.25215510       0.17349723       0.33230781       0.24269819       0.19057581       0.33712116
H       12.72907000      11.42296000      11.54289300      -0.01289153       0.01238419      -0.00427209      -2.07115483       1.62945737       1.10217596      -2.05826330       1.61707318       1.10644805
O       12.49291900       8.20614100      13.59115400      -0.00192260       0.00019157       0.00171821       0.28167445      -0.00070798       0.92199926       0.28359705      -0.00089955       0.92028105
H       11.93866400       8.68834300      14.22699500       0.00254314       0.00234560       0.00545273      -0.28506399       0.19166259      -0.35157838      -0.28760713       0.18931699      -0.35703111
H       13.22959200       8.00251700      14.19283900       0.00207241       0.00186222      -0.00006110      -0.03107148      -0.18952102      -0.62490148      -0.03314389      -0.19138324      -0.62484038
O       13.23307800      10.35846700       8.89339900       0.00812822       0.01076335       0.00154769       0.75539356      -0.50037682       0.55800831       0.74726534      -0.51114017       0.55646062
H       13.44107400       9.46188900       9.24092400      -0.00666659      -0.00359051      -0.00165488      -0.64595943       0.92150278      -0.47652711      -0.63929284       0.92509329      -0.47487223
H       12.29093800      10.44282900       8.74223500       0.00206056      -0.00789827      -0.00144520      -0.16114149      -0.43662426       0.02885158      -0.16320205      -0.42872599       0.03029678
O        9.33537700       8.18363600      11.79320300      -0.00236396      -0.01001493      -0.00152541       0.99839826      -1.95467392       1.12875294       1.00076222      -1.94465899       1.13027835
H        9.93052100       7.61966200      12.39779700      -0.00730545       0.00986049      -0.00145977      -1.23753483       1.62082741      -1.39665502      -1.23022938       1.61096692      -1.39519525
H        9.56825500       9.09659600      11.93157000       0.00638305       0.00553657       0.00285224       0.31323289       0.38080607       0.26685826       0.30684984       0.37526950       0.26400602
O       11.31944800      16.51811500      14.12408500      -0.00843978       0.04474880       0.02765308      -1.45147300      -1.18862818      -2.30396690      -1.44303322      -1.23337698      -2.33161998
H       11.57026700      15.57481900      13.90534100       0.05580577      -0.06496960      -0.00949039      -0.52269909       1.34617799      -0.01252868      -0.57850486       1.41114759      -0.00303829
H       11.76125800      16.72124500      14.89713900      -0.01183029      -0.00027081      -0.01486036       1.44693855       0.83462206       2.42587736       1.45876884       0.83489287       2.44073772
27
Properties=species:S:1:pos:R:3:REF_forces:R:3:DFT_forces:R:3:FOUNDATION_forces:R:3 REF_energy=0.006179610893013887 charge=0 spin=1 external_field="0.0 0.0 0.0" config_type=ORCA_DFT source_file=C_DFTprod_cutcluster_0055.out orca_step=0 DFT_energy=-18719.671554764107 FOUNDATION_energy=-18719.677734375 pbc="F F F"
O       12.91504600      14.47177700      12.59787700       0.00797448      -0.00060457      -0.01043397       1.62679145      -1.27743810       0.62389720       1.61881697      -1.27683353       0.63433117
H       12.34753300      15.19504400      12.46530300      -0.00257188      -0.00900041       0.01985319      -1.06590849       1.60778035      -0.10241625      -1.06333661       1.61678076      -0.12226944
H       13.55651500      14.70554900      13.29369500      -0.00405563       0.01074868      -0.00646201      -0.53971470      -0.06032590      -0.49014959      -0.53565907      -0.07107458      -0.48368758
O       10.54160900       9.84826400      13.13369200       0.00510017      -0.02557473      -0.01382097       2.35789625      -0.23052795       0.98431221       2.35279608      -0.20495322       0.99813318
H       10.89445300      10.64612600      12.72906400       0.00327722       0.00095391      -0.00067952       0.09006102       0.23043653      -0.24541382       0.08678380       0.22948262      -0.24473430
H        9.62124500       9.92542200      13.04810200      -0.00641364       0.01460198       0.00535466      -1.90956921       0.12754730      -0.45808850      -1.90315557       0.11294532      -0.46344316
O        9.81945700      11.06948200      16.21227800       0.01332733       0.00777791      -0.00297260       0.97962591      -0.11287488       1.85451746       0.96629858      -0.12065279       1.85749006
H       10.19295700      10.97041200      15.33005800      -0.00952505       0.00513275       0.00902913       0.42663244      -0.33822952       0.16498796       0.43615749      -0.34336227       0.15595883
H       10.51342900      10.86594200      16.92505700      -0.00968162      -0.00627085       0.00000656      -1.40395824       0.33611551      -2.12859785      -1.39427662       0.34238636      -2.12860441
O       12.00000000      12.00000000      12.00000000      -0.02601352       0.02335593      -0.01141985      -0.22909796       0.09815398       0.44080035      -0.20308444       0.07479805       0.45222020
H       12.25153400      12.90176100      12.24120600       0.00144602      -0.01011133      -0.00972405       0.28819312       0.25785020       0.64060089       0.28674710       0.26796153       0.65032494
H       11.76271700      12.13791200      11.09392500       0.01303479      -0.00069176       0.02024369      -0.22718562      -0.41570180      -1.26020379      -0.24022041      -0.41501004      -1.28044748
O       14.19514600      10.42278700      11.98444800      -0.00401222       0.00121948       0.01843256       0.73838962       0.48491251       1.52570111       0.74240184       0.48369303       1.50726855
H       14.56355200      10.54698700      12.90572800       0.00821920      -0.00546807      -0.00551035      -0.58081554      -0.29990399      -1.64082946      -0.58903474      -0.29443592      -1.63531911
H       13.38801500      10.98020700      11.97354300       0.00164981      -0.00229535      -0.01138469       0.20625715      -0.20723515      -0.01941209       0.20460734      -0.20493980      -0.00802740
O        8.21390100      10.34934300      11.75448400       0.00767662       0.00557895      -0.00202485      -0.82365255       0.00596635       1.54101805      -0.83132917       0.00038740       1.54304290
H        8.24684300      10.06446600      10.83623600       0.00095699      -0.01204740       0.00042933      -0.49705588      -0.58833550       0.39162290      -0.49801287      -0.57628810       0.39119357
H        7.59292800       9.84226200      12.35692600       0.00236853       0.00342291       0.00617255       0.89538654       0.60524493      -1.96059214       0.89301801       0.60182202      -1.96676469
O       13.28034800      11.95408000       8.97839300       0.00375026       0.00657142      -0.00889468       1.60896557       1.65796412       0.11920227       1.60521531       1.65139270       0.12809695
H       13.26096800      12.84230000       8.53337500       0.00194555       0.00049926      -0.00261205      -0.16450197      -1.27137672       0.46945689      -0.16644752      -1.27187598       0.47206894
H       14.20082700      11.97194500       9.37400700      -0.00416065      -0.00363964       0.00157120      -1.55004180      -0.38201058      -0.46653704      -1.54588115      -0.37837094      -0.46810824
O       13.91944900       7.61765400      12.54862500       0.00635153       0.01475333      -0.00586662       0.17869544      -0.98859562      -0.24001126       0.17234391      -1.00334895      -0.23414464
H       14.04349900       8.43622000      12.06580600       0.00091502      -0.01112243       0.00149874      -0.07984387       0.44627381       0.19988580      -0.08075889       0.45739624       0.19838706
H       13.84800100       7.82656500      13.48344200      -0.00164813      -0.00431906       0.00245284      -0.16539949       0.37292893      -0.01337349      -0.16375136       0.37724799      -0.01582633
O       13.02592900       9.03283200      14.96627200      -0.01456041       0.00681244      -0.01916452      -1.86193998       0.72909282      -1.41378160      -1.84737957       0.72228038      -1.39461708
H       12.37237100       9.55557600      14.39279000      -0.00341618      -0.01159443       0.02796185       0.88967025      -1.43926658       0.91958761       0.89308643      -1.42767215       0.89162576
H       13.60655800       9.71006600      15.27147600       0.00806519       0.00131104      -0.00203540       0.81212058       0.65155492       0.56381617       0.80405539       0.65024388       0.56585157
27
Properties=species:S:1:pos:R:3:REF_forces:R:3:DFT_forces:R:3:FOUNDATION_forces:R:3 REF_energy=0.01847285340409144 charge=0 spin=1 external_field="0.0 0.0 0.0" config_type=ORCA_DFT source_file=C_DFTprod_cutcluster_0056.out orca_step=0 DFT_energy=-18719.030355271596 FOUNDATION_energy=-18719.048828125 pbc="F F F"
O       11.49833900      14.76544100      10.89343300       0.00238216      -0.01179602       0.02421795       0.34648857       1.27124498       0.20740391       0.34410641       1.28304100       0.18318596
H       11.67290100      15.58352500      10.40969300      -0.00320950       0.01225695      -0.01516844       0.07676034       0.51621708       0.66895013       0.07996984       0.50396013       0.68411857
H       11.37261400      14.24139500      10.12583900       0.00995953       0.00093077      -0.00436827      -0.30441653      -1.80596639      -0.82913383      -0.31437606      -1.80689716      -0.82476556
O       11.27684700       8.96058400      10.63895000       0.00518258       0.00023468       0.01505696       0.86659224       0.41899060      -0.36922289       0.86140966       0.41875592      -0.38427985
H       11.10518500       9.38684100      11.50503800      -0.00017244       0.00082683      -0.00796980       0.48931187       0.02142634      -0.98136634       0.48948431       0.02059951      -0.97339654
H       12.00751800       9.46940000      10.19033300      -0.00249490       0.00498261      -0.00408409      -1.37046406      -0.61569832       1.18824699      -1.36796916      -0.62068093       1.19233108
O       14.85797800      14.99669000      12.67219800      -0.00614253      -0.01076743      -0.00527291       2.28720197       0.99331668       1.62692864       2.29334450       1.00408411       1.63220155
H       14.05001700      14.85461800      12.23741700      -0.00577288       0.00169453      -0.00505705      -1.81590777       0.34918335      -1.06807799      -1.81013489       0.34748882      -1.06302094
H       15.01578000      15.94661100      12.90887900       0.00594048       0.01396010       0.00470306      -0.71944352      -1.40097895      -0.63863729      -0.72538400      -1.41493905      -0.64334035
O       10.13526600       8.47716500      14.27628600      -0.00560242       0.00328625      -0.00749296       0.29624849      -0.06033706      -0.19471511       0.30185091      -0.06362331      -0.18722215
H       10.30604400       9.40594700      14.03379700       0.00991703       0.00178545       0.00426110      -0.47693931      -0.51275838       0.49868169      -0.48685634      -0.51454383       0.49442059
H        9.30509300       8.35557200      14.75510600      -0.00243579      -0.00344397       0.00506391       0.27610297       0.64699553      -0.28214414       0.27853876       0.65043950      -0.28720805
O       13.82531600      13.58635800      15.19859600       0.02165309       0.01378176      -0.01029790      -0.10733914      -0.76042655       0.80692577      -0.12899223      -0.77420831       0.81722367
H       13.68604800      14.31882000      15.79169300      -0.00419657      -0.00743340      -0.00251602       0.00134793       0.37131803       0.25264309       0.00554450       0.37875143       0.25515911
H       13.92234200      13.95719200      14.33281000      -0.01001895      -0.01032186       0.00830966       0.36337789       0.51449948      -0.93955809       0.37339684       0.52482134      -0.94786775
O       13.90528000      10.58282300      12.53982400       0.02527204      -0.01871529      -0.01155209       2.73599973       1.19950256       1.28156066       2.71072769       1.21821785       1.29311275
H       14.53713000      10.81313700      11.80854900       0.00066907      -0.00121058       0.00301017      -0.86150896      -0.41739703       0.91817613      -0.86217803      -0.41618645       0.91516596
H       14.48111700      10.80293300      13.37639500      -0.01269880       0.01034263       0.00525966      -1.82728747      -0.67464646      -2.27998123      -1.81458867      -0.68498909      -2.28524089
O       11.18851500      11.59992300      11.68216200      -0.01410046      -0.02839794      -0.02601718      -1.44145325       0.68442247      -0.30769386      -1.42735279       0.71282041      -0.28167668
H       10.41592600      12.19335500      11.88740200      -0.01545788       0.02276412      -0.00348282       1.29338192      -0.73743209      -0.14067705       1.30883980      -0.76019621      -0.13719423
H       12.00000000      12.00000000      12.00000000       0.00207461       0.01414509       0.00643421      -0.05099408       0.04676534       0.52780504      -0.05306869       0.03262025       0.52137083
O       11.83549800      11.70893700      14.63410100      -0.01443078       0.01437106       0.02631944      -2.69970490       1.18960371       0.63950437      -2.68527412       1.17523265       0.61318493
H       12.45948800      12.28614600      15.07038700      -0.00858342      -0.01077276       0.01066274       1.06523491       0.22243494       0.16004645       1.07381833       0.23320770       0.14938371
H       10.99846800      12.23226100      14.87745500       0.01568440      -0.00767296      -0.01810203       1.50044552      -1.46739214      -0.77898369       1.48476112      -1.45971918      -0.76088166
O        8.39895900      12.93577800      11.57792300       0.00705485      -0.00295248       0.01717267      -0.53102453      -0.09514507       0.62530324      -0.53807938      -0.09219259       0.60813057
H        8.54297500      13.47559100      10.80614100       0.00231049      -0.00374630      -0.00000940       0.05041311       0.29353696      -0.39361535       0.04810262       0.29728326      -0.39360595
H        7.53078300      13.20867900      11.92374700      -0.00278276       0.00186848      -0.00908064       0.55757600      -0.19127960      -0.19836926       0.56035876      -0.19314808      -0.18928862
27
Properties=species:S:1:pos:R:3:REF_forces:R:3:DFT_forces:R:3:FOUNDATION_forces:R:3 REF_energy=-0.008708861081686337 charge=0 spin=1 external_field="0.0 0.0 0.0" config_type=ORCA_DFT source_file=C_DFTprod_cutcluster_0057.out orca_step=0 DFT_energy=-18720.10050573608 FOUNDATION_energy=-18720.091796875 pbc="F F F"
O       10.98050800      10.49968300      12.24697300       0.01182707      -0.03886578      -0.01154947       0.14688909       0.32024979       1.38116181       0.13506202       0.35911557       1.39271128
H       10.31286000       9.83935100      12.10075100      -0.00781409       0.01157166      -0.00067045      -0.47805281      -0.44746290      -0.36700680      -0.47023872      -0.45903456      -0.36633635
H       10.80132600      10.78569000      13.17848500      -0.00325766       0.01251512       0.00442536       0.18054216       0.02731227      -0.67613159       0.18379982       0.01479715      -0.68055695
O       14.30051400      13.16817000      10.33098800       0.00363706       0.00107223      -0.00699556      -0.81678493       1.99264819      -1.80361378      -0.82042199       1.99157596      -1.79661822
H       14.29725800      12.23795000      10.19395600       0.00163618      -0.01138916       0.00950463       0.05255973      -1.86946406       0.12434134       0.05092355      -1.85807490       0.11483671
H       13.93995000      13.46212800       9.44599800       0.00115288       0.00658436      -0.00517754       0.78761602      -0.09880699       1.34322806       0.78646314      -0.10539135       1.34840560
O       10.32621300      11.54855600       8.81268400      -0.00901288      -0.01595486      -0.02458893       0.49242836       0.78471946       0.94126726       0.50144124       0.80067432       0.96585619
H        9.64674900      11.69804500       9.49078900       0.01135240       0.01574571       0.00753543       0.01279489      -0.10437625      -0.32871130       0.00144249      -0.12012196      -0.33624673
H       11.01950200      12.18334600       9.10239000      -0.00005343      -0.00245693       0.01838089      -0.55993828      -0.62133911      -0.49267071      -0.55988485      -0.61888218      -0.51105160
O        9.25158500      13.44130000      11.95423700       0.02631310       0.00715760       0.00240977       0.12099412       1.24267606       1.83735247       0.09468102       1.23551846       1.83494270
H       10.15869000      13.18740600      11.75667100      -0.02349916      -0.00114458       0.00577732       0.38555160      -0.03707130      -0.09023159       0.40905076      -0.03592672      -0.09600891
H        9.39193800      13.99866600      12.78672000      -0.01254214       0.00185316       0.00607804      -0.50512375      -1.17642171      -1.74299570      -0.49258161      -1.17827487      -1.74907374
O       10.83186100      11.95538500      15.20045100      -0.00316812      -0.01529078      -0.01348460       0.43524800      -1.07186512       0.27421820       0.43841612      -1.05657434       0.28770280
H       11.49273300      12.64300100      14.98234900       0.01173540       0.00458305      -0.01505899       0.11893091      -0.17407995       0.38196826       0.10719551      -0.17866300       0.39702725
H       11.27281700      11.30703900      15.80446600       0.00414918       0.00760408       0.00509258      -0.45925017       1.08659919      -0.76226823      -0.46339935       1.07899511      -0.76736081
O       12.14306400      12.94067000      11.92680400      -0.02844501       0.00111601       0.03123072      -1.21687031       0.97911611       1.17532519      -1.18842530       0.97800010       1.14409447
H       12.76364800      13.18059000      11.24165700       0.00787979      -0.03602724       0.00884342       0.99882465      -0.31603293      -0.45379573       0.99094486      -0.28000569      -0.46263915
H       12.00000000      12.00000000      12.00000000       0.01054986       0.04412543      -0.01636252       0.26804339      -0.50191558      -0.41393113       0.25749353      -0.54604101      -0.39756861
O       12.86273300      13.85638300      14.52369700      -0.00785496       0.01202716       0.00266227      -0.06853019       0.36294626       1.30529353      -0.06067523       0.35091910       1.30263126
H       12.65684700      13.60331600      13.61929200      -0.00335727      -0.00730511      -0.00568660      -0.16459232       0.43927429      -0.86551078      -0.16123505       0.44657940      -0.85982418
H       12.57570300      14.76677800      14.73713300       0.00177681      -0.00131402       0.00334912       0.18239855      -0.84106550      -0.66291833       0.18062174      -0.83975148      -0.66626745
O       13.10940600      10.47338700      10.05782200      -0.03068594      -0.02986328       0.01310028      -1.17336909       0.77767726       0.16526019      -1.14268315       0.80754054       0.15215991
H       12.21138800      10.55431300      10.46481100       0.02047929       0.01188668      -0.00841496       0.95849761      -0.20515739      -0.54500542       0.93801832      -0.21704407      -0.53659046
H       13.48075900       9.70128400      10.46542900       0.01529498       0.01865810      -0.01140494       0.34896017      -0.59299249       0.31126677       0.33366519      -0.61165059       0.32267171
O       14.60704600       9.76368900      14.00671100       0.00403596      -0.00029236       0.01165544       0.90925754       1.86683387       1.40157138       0.90522158       1.86712623       1.38991594
H       13.77576500       9.37766500      13.72279500      -0.00677120       0.00476144      -0.00463195      -0.37960845       0.65278350       0.49352725      -0.37283725       0.64802206       0.49815920
H       14.54022300      10.58618400      14.62499600       0.00464176      -0.00135764      -0.00601927      -0.57741649      -2.47478494      -1.93099061      -0.58205825      -2.47342730      -1.92497134
27
Properties=species:S:1:pos:R:3:REF_forces:R:3:DFT_forces:R:3:FOUNDATION_forces:R:3 REF_energy=-0.01780638506897958 charge=0 spin=1 external_field="0.0 0.0 0.0" config_type=ORCA_DFT source_file=C_DFTprod_cutcluster_0058.out orca_step=0 DFT_energy=-18719.98265013507 FOUNDATION_energy=-18719.96484375 pbc="F F F"
O        9.70158500       9.56353100      11.50113800       0.01394174      -0.00682011       0.00543622       0.39841730      -1.49562111      -1.54986902       0.38447556      -1.48880100      -1.55530524
H       10.25827900       8.89034000      11.93880900      -0.00296121       0.00242214       0.00528859      -0.54732733       0.49392901       0.04885523      -0.54436612       0.49150687       0.04356664
H        9.56665800       9.14611400      10.59613200      -0.00499090       0.00095008      -0.00672831       0.12498704       1.00059537       1.51620243       0.12997794       0.99964529       1.52293074
O       11.92725500       9.77476800      13.86757900       0.04267009      -0.03567140       0.01085220      -1.52847652      -3.31038587      -0.74527349      -1.57114661      -3.27471447      -0.75612569
H       12.43325700      10.52656800      13.71724300      -0.01294579       0.00590598      -0.00716519       1.76911364       2.35024583      -0.43670386       1.78205943       2.34433985      -0.42953867
H       12.06288200       9.20004600      13.07221000      -0.02434020       0.01637912       0.00091683       0.09220424       0.87450075       1.21789443       0.11654444       0.85812163       1.21697760
O       12.11935400      13.20880000      15.73270600       0.01624655      -0.01412741       0.00502337      -0.38822324      -0.30379067      -0.55898785      -0.40446979      -0.28966326      -0.56401122
H       11.39741400      12.70506200      15.28915600      -0.01000148       0.00432066       0.00059742       0.26608539      -0.24797659       0.39377970       0.27608687      -0.25229725       0.39318228
H       11.62861600      13.93784100      16.09660700      -0.01019385      -0.00218788      -0.00748625      -0.18809616       0.47419029       0.77972648      -0.17790231       0.47637817       0.78721273
O       12.66850200      14.63035600      13.52707900      -0.00783517       0.01679341       0.03150329       0.48212636       0.00866426      -0.44447702       0.48996153      -0.00812915      -0.47598031
H       12.03997700      14.51764000      14.25202500      -0.00413203      -0.00319853       0.00116536       0.23888944      -0.00378286      -0.06024980       0.24302147      -0.00058433      -0.06141516
H       12.51847900      15.44515600      13.04702100       0.00407488      -0.01837407      -0.03263198      -0.33249550       0.08687038       0.12077537      -0.33657038       0.10524445       0.15340735
O       10.95234900      12.20131300       8.14730000       0.00797693       0.00539825      -0.00682595      -0.69084128       1.62421391      -0.01354000      -0.69881821       1.61881566      -0.00671405
H       10.32937600      12.94150200       7.93082400      -0.00075424      -0.00269674       0.00678104       0.50952208      -1.18037997      -0.00592619       0.51027632      -1.17768323      -0.01270723
H       11.48739200      12.66527400       8.80734300      -0.00957474      -0.00669083      -0.00313440       0.13106647      -0.49231544       0.07803309       0.14064121      -0.48562461       0.08116749
O        9.95445500      12.05844300      14.37094200       0.00867063       0.01069248      -0.01013897      -1.44687515       1.52647507       1.04582514      -1.45554578       1.51578259       1.05596411
H        9.29741600      12.81041000      14.39428900      -0.00071028       0.00497164       0.01821815       0.87460282      -1.28920732       0.01123824       0.87531310      -1.29417896      -0.00697991
H       10.47754900      12.27767400      13.60432400       0.00231225       0.00179503      -0.02159136       0.28195275      -0.20841456      -1.22485595       0.27964050      -0.21020959      -1.20326459
O       11.03248200      12.07024000      11.77514400      -0.01682064       0.01454779       0.00374094       1.38297608      -0.76926122       0.22876968       1.39979672      -0.78380901       0.22502874
H       12.00000000      12.00000000      12.00000000       0.00132459       0.00728660      -0.00682312      -0.89791722       0.23024560      -0.28153890      -0.89924181       0.22295900      -0.27471578
H       10.75933900      11.12908800      11.68951800       0.00653472       0.01440327      -0.00143935      -0.38840640       0.51767521      -0.10186285      -0.39494112       0.50327194      -0.10042350
O       10.22508800      14.66257900      11.34088800       0.00343582       0.02631760       0.00336421      -0.79598871       0.67584372       0.08109805      -0.79942453       0.64952612       0.07773384
H       11.03033100      15.09522900      11.06774100       0.00087560      -0.00469770      -0.00036259       0.29315463      -0.19969127      -0.13214016       0.29227903      -0.19499357      -0.13177757
H       10.36909900      13.71164000      11.37978000       0.00492068      -0.03466831       0.00886024       0.45864617      -0.33529003      -0.01475315       0.45372549      -0.30062172      -0.02361339
O       13.60649300      12.12661800      13.04499100      -0.01316362       0.00456407      -0.01457719       0.43073011       1.09419181      -0.47257255       0.44389373       1.08962774      -0.45799536
H       14.57136700      12.06965500      12.86881700       0.00968594       0.00235453       0.02721057      -1.06386333       0.15069550       0.20518706      -1.07354927       0.14834097       0.17797649
H       13.36226800      13.11143600      13.08420900      -0.00424667      -0.00996984      -0.01005422       0.53403632      -1.27221979       0.31536598       0.53828299      -1.26224995       0.32542020
27
Properties=species:S:1:pos:R:3:REF_forces:R:3:DFT_forces:R:3:FOUNDATION_forces:R:3 REF_energy=-0.005242691364401253 charge=0 spin=1 external_field="0.0 0.0 0.0" config_type=ORCA_DFT source_file=C_DFTprod_cutcluster_0059.out orca_step=0 DFT_energy=-18719.878289566364 FOUNDATION_energy=-18719.873046875 pbc="F F F"
O       10.87622400       9.61494800      10.07053900       0.00944814      -0.00540468       0.00753933       0.67843190       0.54888979       0.31940359       0.66898376       0.55429447       0.31186426
H       11.07481500       9.82591600      11.01088700      -0.00709277       0.01232615       0.00454316      -0.30801463      -0.05130164      -1.28873470      -0.30092186      -0.06362779      -1.29327786
H       11.61282100      10.06752200       9.57605200       0.01113039      -0.00194911      -0.01427706      -0.75027794      -0.75408045       0.72950409      -0.76140833      -0.75213134       0.74378115
O        9.24387300      13.07854700      10.75859100      -0.00266179       0.00579556      -0.00361125       0.59986541      -1.88064198      -0.18575440       0.60252720      -1.88643754      -0.18214315
H        9.46700100      12.20518500      10.31164200      -0.00120701      -0.00308692       0.00067864      -0.43778403       1.57089782       0.81170736      -0.43657702       1.57398474       0.81102872
H        9.58675400      12.96109500      11.66957700       0.00676956       0.00413181       0.00714948      -0.12307044       0.30215617      -0.75548730      -0.12984000       0.29802436      -0.76263678
O       15.16659200       9.87068300      13.65987400      -0.00663803       0.01524299      -0.00981463      -0.23730744       1.59088856      -2.10022033      -0.23066941       1.57564557      -2.09040570
H       15.70337900       9.14198700      13.30602500      -0.00315412      -0.00279605       0.00012072      -0.07039228       0.47051788      -0.02326134      -0.06723816       0.47331393      -0.02338206
H       15.15818700      10.61284600      12.93911000       0.00550519      -0.00681151       0.00173340       0.35441811      -2.04729355       1.92506561       0.34891292      -2.04048204       1.92333221
O       12.49424800      11.30383100      11.63234200      -0.00100939      -0.03423020       0.06553771       2.09326704      -1.69619617      -1.53464506       2.09427643      -1.66196597      -1.60018277
H       12.00000000      12.00000000      12.00000000       0.02394765       0.00136602      -0.00661775      -1.18433315       1.47791541       1.32203785      -1.20828080       1.47654939       1.32865560
H       12.51014700      10.46102800      12.13659800      -0.01252323       0.01409423      -0.02942173      -0.56304335       1.22374832       0.46515389      -0.55052012       1.20965409       0.49457562
O       14.58988600      13.56970100      13.28255100      -0.00372512       0.00097998      -0.00463021       0.35867920       1.24789329       0.11209604       0.36240432       1.24691331       0.11672625
H       14.62502100      14.44067500      12.83304500       0.00957913      -0.00056712       0.00512936       0.03538337      -0.86388836       0.38841324       0.02580424      -0.86332124       0.38328388
H       14.29827900      12.96085800      12.61457800      -0.01019235      -0.00510469       0.00169772      -0.47006999      -0.39679792      -0.57839829      -0.45987764      -0.39169323      -0.58009601
O       11.73749700      11.70564500      15.06110200      -0.02108770       0.03203636      -0.01664900      -0.09314948      -1.41751093      -0.03861730      -0.07206178      -1.44954729      -0.02196830
H       10.88667400      11.42902600      15.44258500       0.00877679      -0.01268586       0.00988860       0.34407837       0.31903485      -0.08118593       0.33530158       0.33172071      -0.09107453
H       12.12896800      10.81822700      14.80788000      -0.00383777      -0.00821625       0.00738718      -0.52860821       1.45192839       0.16958638      -0.52477044       1.46014464       0.16219920
O       11.33331000      13.64363700      12.78436400      -0.01029475      -0.00834234       0.01994669       0.62219308       1.94628184      -0.33087683       0.63248783       1.95462418      -0.35082352
H       11.37669500      13.32889000      13.69612500       0.01199969       0.00832013      -0.01317337       0.33645325       0.00842545       0.30110443       0.32445356       0.00010532       0.31427780
H       11.72413000      14.58103500      12.75578500      -0.00818970       0.00152172      -0.00545227      -0.93974676      -2.30620633       0.23959536      -0.93155706      -2.30772805       0.24504763
O       12.43951100       9.51692000      13.53153800       0.00148735      -0.00518559      -0.01923325       1.13325283      -2.10876153      -1.04787662       1.13176548      -2.10357594      -1.02864337
H       13.44491100       9.47614100      13.43116200       0.00454885       0.00445073      -0.00210168      -0.88554245       0.17071278       0.75465802      -0.89009130       0.16626205       0.75675970
H       12.17087200       8.62986300      13.17672400       0.00479583      -0.00101350       0.00216373       0.02615486       1.02681543       0.70028206       0.02135903       1.02782893       0.69811833
O       13.53339000      10.60107400       9.24477600       0.00484934      -0.01551351      -0.01809915      -0.08376871       0.36738846      -0.29297250      -0.08861805       0.38290197      -0.27487335
H       13.36585300      10.99037200      10.12697500      -0.00342178       0.01002134      -0.00740756      -0.13047480       0.08636382      -0.30197717      -0.12705302       0.07634248      -0.29456961
H       13.31083200      11.30153800       8.60938100      -0.00780249       0.00062096       0.01697312       0.22340631      -0.28717929       0.32139985       0.23120880      -0.28780025       0.30442673
27
Properties=species:S:1:pos:R:3:REF_forces:R:3:DFT_forces:R:3:FOUNDATION_forces:R:3 REF_energy=0.001731584397930419 charge=0 spin=1 external_field="0.0 0.0 0.0" config_type=ORCA_DFT source_file=C_DFTprod_cutcluster_0060.out orca_step=0 DFT_energy=-18719.556862165602 FOUNDATION_energy=-18719.55859375 pbc="F F F"
O       15.24740900      10.80780200      12.77287100      -0.00713348       0.00921326       0.01563279      -0.07131742       0.13721187       2.77400033      -0.06418394       0.12799861       2.75836754
H       15.54689100      11.02069500      13.73509100      -0.00382304      -0.01376493      -0.00761547      -0.80885893      -0.69331170      -2.55856290      -0.80503589      -0.67954677      -2.55094743
H       14.43043100      10.27133100      12.91568400       0.00210472      -0.00750364       0.00712161       0.80912741       0.41145300       0.00684664       0.80702269       0.41895664      -0.00027497
O       12.16827300      16.23185400      11.98344700       0.00002691       0.00031123       0.00088732      -0.05948921      -1.32985904       0.29723667      -0.05951612      -1.33017027       0.29634935
H       12.31903600      15.47773600      12.60881800       0.00878169      -0.00067624      -0.00840172      -0.14171207       0.94674710      -0.63942703      -0.15049376       0.94742334      -0.63102531
H       11.78399200      15.78660900      11.20382000       0.00073501       0.00553463       0.01337224       0.24488422       0.19412884       0.50578838       0.24414921       0.18859421       0.49241614
O       11.63773100      14.66933300       9.33252100      -0.00391612      -0.00863552      -0.00484728       0.07673412       1.13847017       0.17821587       0.08065024       1.14710569       0.18306315
H       11.51211900      15.59263100       9.01571900      -0.00203949       0.00283200       0.00297216       0.09992773      -1.11062306       0.06277935       0.10196722      -1.11345506       0.05980719
H       11.24135800      14.08959900       8.68320000       0.00236029      -0.00019065      -0.00513759      -0.17202013       0.02099810      -0.27210563      -0.17438042       0.02118875      -0.26696804
O       13.22338200       9.68597000      14.91197500       0.00757867      -0.01165981      -0.02517106      -0.19503392       1.44491082      -0.30394267      -0.20261259       1.45657063      -0.27877161
H       13.56888900       9.21985400      15.67032500      -0.00197981       0.00542536       0.00401933       0.06331666      -0.02340758       0.38636387       0.06529647      -0.02883294       0.38234454
H       13.03664600      10.61348100      15.20845500      -0.00393591      -0.00134404       0.01997892       0.06360426      -1.30225392      -0.07522287       0.06754017      -1.30090988      -0.09520179
O       15.10891100      13.08223700      11.16912400      -0.00418373      -0.00375827      -0.00332489      -0.08266946       1.55409710      -1.36362138      -0.07848573       1.55785537      -1.36029649
H       14.32920600      13.63477700      11.32100300       0.00296255       0.01315917       0.01576106       0.36896639      -0.40198229       0.23038737       0.36600384      -0.41514146       0.21462631
H       15.18151900      12.36493900      11.77693000      -0.00327002      -0.00217432      -0.01198711      -0.31200313      -0.98372060       0.98857890      -0.30873311      -0.98154628       1.00056601
O       10.12120800      12.07675200      14.75752000      -0.00876488       0.02164956       0.00845631      -1.35875274      -0.76789025      -0.80629770      -1.34998786      -0.78953981      -0.81475401
H        9.37316300      11.45884900      14.91721200       0.00035675      -0.00489572      -0.00502694       0.79183705       0.55272433       0.20017320       0.79148030       0.55762005       0.20520014
H       10.06489000      12.19297300      13.79263800       0.00043816      -0.01219462       0.00964393       0.56079955       0.16013665       0.33438449       0.56036139       0.17233127       0.32474056
O       11.45937500      12.27817700      17.09440400       0.02139430      -0.00302401      -0.01718619      -0.33762084       1.20020375      -1.16124680      -0.35901514       1.20322776      -1.14406061
H       11.02814800      12.38516200      16.17302000      -0.00058343      -0.00373256       0.00591576       0.91355822      -0.00249037       1.95388901       0.91414165       0.00124219       1.94797325
H       11.64807200      13.18870000      17.43350400      -0.01757585       0.00488528       0.00585880      -0.33108365      -1.21203581      -0.66988746      -0.31350780      -1.21692109      -0.67574626
O       13.37379400      15.03921700      14.75264000      -0.00906427       0.00707497       0.00970035      -1.24052019       2.55429806      -0.41370729      -1.23145592       2.54722309      -0.42340764
H       14.28080000      14.80970400      14.86414500       0.00028534       0.00697392      -0.01088659       1.11542804      -0.20486552       0.10047029       1.11514270      -0.21183944       0.11135688
H       13.36951100      16.05323000      14.67255100       0.00168216      -0.00377514      -0.00389848       0.07089843      -2.31640055       0.19488161       0.06921627      -2.31262541       0.19878009
O       12.00000000      12.00000000      12.00000000       0.00188569       0.00144839      -0.00327428      -2.01145931      -0.76925278       0.87185631      -2.01334500      -0.77070117       0.87513059
H       12.04474200      12.27328500      11.10854100       0.01542417      -0.00574271       0.01724732       0.14381816       0.48937332      -1.56651342       0.12839399       0.49511603      -1.58376074
H       12.83634300      12.17393000      12.36353500       0.00025321       0.00456357      -0.02980939       1.79964055       0.31334037       0.74468281       1.79938734       0.30877680       0.77449220
27
Properties=species:S:1:pos:R:3:REF_forces:R:3:DFT_forces:R:3:FOUNDATION_forces:R:3 REF_energy=0.018090544475853676 charge=0 spin=1 external_field="0.0 0.0 0.0" config_type=ORCA_DFT source_file=C_DFTprod_cutcluster_0061.out orca_step=0 DFT_energy=-18719.413550080524 FOUNDATION_energy=-18719.431640625 pbc="F F F"
O       11.08751700      12.17533100      11.71331500      -0.00385774       0.01054128      -0.01358398      -0.72947247       0.57454940       0.39699224      -0.72561473       0.56400812       0.41057622
H       10.82524600      11.86187700      10.82467300       0.04635725       0.00888736       0.02068762       1.05410836      -0.37840106       0.68139021       1.00775111      -0.38728842       0.66070259
H       12.00000000      12.00000000      12.00000000      -0.02044543      -0.00713658      -0.02102010      -0.32347771      -0.44078117      -0.71281670      -0.30303228      -0.43364459      -0.69179660
O        9.05997500      13.85643500      15.50710600       0.00030600       0.00546585       0.01287216      -2.55153073       2.28936802       1.71981376      -2.55183673       2.28390217       1.70694160
H        8.09484300      13.66203700      15.56228700       0.00151441      -0.00093172      -0.00590078       1.20958874       0.25169744      -0.04992800       1.20807433       0.25262916      -0.04402722
H        9.41217900      13.15987300      15.03939000       0.00225538      -0.00257817      -0.00621116       1.36709720      -2.60232678      -1.65122104       1.36484182      -2.59974861      -1.64500988
O       12.63321600      12.99844100       9.24101700      -0.01999749      -0.00900081       0.00075547      -0.22634282      -0.69331411      -0.23541665      -0.20634533      -0.68431330      -0.23617212
H       12.14025700      12.15340100       9.18020800       0.00577015       0.00796380       0.00439979       0.44266522       0.73846891      -0.40417467       0.43689507       0.73050511      -0.40857446
H       12.33429200      13.30439200      10.09385900       0.00583166      -0.00287202      -0.00341993       0.14339547       0.43070841       0.44938583       0.13756381       0.43358043       0.45280576
O       12.16868200      11.09391600      16.45121000       0.01410128       0.01340589       0.01614297       1.10487474      -0.19332656      -0.07947733       1.09077346      -0.20673245      -0.09562030
H       11.59087900      11.07582200      15.67768500      -0.01111318      -0.00002587      -0.00453750      -0.04701499       0.07784838      -0.23420628      -0.03590181       0.07787425      -0.22966878
H       13.06911300      10.94561200      16.09033300      -0.00499335      -0.00935300      -0.00504213      -1.00304177       0.14388439       0.33747140      -0.99804842       0.15323739       0.34251353
O       10.87000800      10.88540600       9.19562400      -0.01070931       0.01794894      -0.02019687      -2.36842611      -1.76111488      -0.87504710      -2.35771680      -1.77906382      -0.85485023
H       11.32110900      10.02218100       9.01559200       0.00882368      -0.01278070       0.02017698      -0.66365392       1.00637742       0.27774185      -0.67247760       1.01915812       0.25756487
H        9.87679500      10.73012200       8.96691900       0.00081104      -0.00015362      -0.00604592       2.72049516       0.36400236       0.46336527       2.71968412       0.36415598       0.46941119
O       10.93964700      15.30409400      11.56507100       0.00954899       0.00233428       0.01095206       0.23246713      -0.83740790      -1.12086623       0.22291814      -0.83974218      -1.13181829
H       10.94344800      14.33846100      11.27699100      -0.00829463      -0.00225981      -0.00370877      -0.06516533       1.88471739       0.47247968      -0.05687070       1.88697720       0.47618845
H       11.07736200      15.88703300      10.78168700      -0.00611991      -0.00361274      -0.00469675      -0.24504790      -1.06372665       0.72109041      -0.23892799      -1.06011391       0.72578716
O       14.01268100      14.76462100      12.50146000      -0.00305443       0.00508042      -0.00313839       0.24705182       0.38971730       1.91417817       0.25010625       0.38463688       1.91731656
H       13.97878500      15.34203100      13.33327600      -0.01083877      -0.00348232       0.00915707      -0.13799153      -0.95381532      -2.27194463      -0.12715276      -0.95033300      -2.28110170
H       13.85883600      15.28453700      11.70548800       0.00937997      -0.00104141      -0.00435339      -0.14506520       0.28086090       0.46600251      -0.15444517       0.28190231       0.47035590
O       10.35858500      10.81853500      14.26661900      -0.00475259      -0.01813773      -0.00520740      -0.45967163      -1.07961730      -0.61254249      -0.45491904      -1.06147957      -0.60733509
H       10.17064400       9.84348000      14.31915600       0.00177523       0.00013966       0.00309561       0.25698307       1.55233306      -0.30323778       0.25520784       1.55219340      -0.30633339
H       10.37064000      11.08672600      13.31477000       0.00551171       0.00635555       0.02130039       0.12751001      -0.32625291       0.82650359       0.12199830      -0.33260846       0.80520320
O       13.77541000      11.63422200      13.27211100       0.01569259       0.00093351       0.01002088       0.44802618       1.38797091       0.33535215       0.43233359       1.38703740       0.32533127
H       14.43370800      11.60546200      14.00409500      -0.02542289      -0.00642479      -0.00823642      -0.74189218       0.04569133      -0.87887944      -0.71646929       0.05211612      -0.87064302
H       13.72080300      12.60510600      13.04586500       0.00192019       0.00073569      -0.01426198       0.35353124      -1.08811099       0.36799128       0.35161105      -1.08884668       0.38225326
27
Properties=species:S:1:pos:R:3:REF_forces:R:3:DFT_forces:R:3:FOUNDATION_forces:R:3 REF_energy=-0.004117924181628041 charge=0 spin=1 external_field="0.0 0.0 0.0" config_type=ORCA_DFT source_file=C_DFTprod_cutcluster_0062.out orca_step=0 DFT_energy=-18720.37911792418 FOUNDATION_energy=-18720.375 pbc="F F F"
O       13.89998000      12.40641200       9.95156400       0.01203998      -0.00058092       0.00937288       0.94641646       1.22194921       1.10058491       0.93437648       1.22253013       1.09121203
H       12.98943500      12.14196100       9.91421000      -0.00353367       0.00182726       0.00922102      -0.89965118      -0.48872412      -0.06567503      -0.89611751      -0.49055138      -0.07489605
H       13.86610800      13.11354400      10.65897400      -0.01004646       0.00874842      -0.00737428       0.09324585      -1.15552615      -1.43151640       0.10329231      -1.16427457      -1.42414212
O       13.24899300      14.37240900      11.72155100       0.00375482      -0.00572533      -0.00691467       0.92185404       2.01237493       1.00380832       0.91809922       2.01810026       1.01072299
H       14.04308200      14.74806800      12.19505200       0.00624004       0.00732757       0.00203557      -0.98971924      -0.70291852      -0.62639277      -0.99595928      -0.71024609      -0.62842834
H       12.75374000      15.18934100      11.49803100      -0.00335172       0.00033309       0.00002587       0.22606051      -0.73351548      -0.14763358       0.22941223      -0.73384857      -0.14765945
O       13.57564100      10.59000200      14.80962300       0.00641238      -0.02625578       0.01447853      -0.38935447      -0.81071656      -0.50107030      -0.39576685      -0.78446078      -0.51554883
H       13.36019700      10.27404000      15.69385400       0.00118442       0.02244540      -0.00038122       0.00656470       0.11141511       0.00579038       0.00538028       0.08896971       0.00617160
H       13.24034500       9.88048700      14.21483300      -0.00040879       0.00515170      -0.01564216       0.36844430       0.66596986       0.39116684       0.36885309       0.66081816       0.40680900
O       11.83626300      13.26291400      13.81402000       0.00509321      -0.00257680       0.02653869      -0.52266783       0.59212783      -0.12777638      -0.52776104       0.59470463      -0.15431507
H       10.97138700      13.71158900      13.92112600      -0.00155836       0.00002802       0.00144342       0.66160310      -0.52626007      -0.14470735       0.66316146      -0.52628809      -0.14615077
H       12.30477400      13.76417200      13.11618500      -0.00671839       0.00665705      -0.01698403      -0.26572528      -0.23287578       0.41248818      -0.25900689      -0.23953283       0.42947221
O       10.21478600      10.81836200      14.26414000      -0.02357974      -0.00557990      -0.00069611       2.11094461      -0.78645660      -0.50566970       2.13452435      -0.78087670      -0.50497359
H       11.16044000      11.17213100      14.20697200      -0.00749055      -0.00613765      -0.00198699      -1.81152121      -0.07579901       0.18469593      -1.80403066      -0.06966136       0.18668292
H       10.40701800       9.88104500      13.98893600       0.00725074       0.00610889       0.00776621      -0.39331351       0.82445849       0.26926538      -0.40056425       0.81834960       0.26149917
O       13.93206200       9.38488900      12.05591700      -0.00344574       0.01965883       0.00302082       0.13839637      -0.28581310       0.40365958       0.14184211      -0.30547193       0.40063876
H       14.72432000       9.77547800      12.44773800       0.00462280      -0.00789395      -0.00245361      -0.15425047      -0.07609607      -0.09976241      -0.15887327      -0.06820212      -0.09730880
H       13.50833100      10.10164600      11.58007900       0.00111423      -0.01373141      -0.01145414      -0.21737722       0.43207664      -0.38269058      -0.21849145       0.44580805      -0.37123644
O       11.28688400       8.38269300      13.14251700       0.00810644       0.01278359       0.00117572       0.95501521      -0.74740010       0.62976744       0.94690877      -0.76018369       0.62859172
H       11.62292400       7.69976400      13.78569500      -0.00048594       0.00119375      -0.01019530      -0.37078319       1.05763601      -1.21835260      -0.37029725       1.05644226      -1.20815730
H       12.05014200       8.64414000      12.57152100      -0.01526338      -0.00102999       0.01697040      -0.49417877      -0.35678368       0.64217055      -0.47891539      -0.35575369       0.62520015
O       11.62520100      11.35473400      11.31242700       0.01625571       0.02541361      -0.01539758       0.96800098       0.96387831       1.04891941       0.95174527       0.93846470       1.06431699
H       10.65194500      11.37583500      11.39620400      -0.00692531      -0.01109655       0.00200942       0.38844353       0.37796824       0.20303659       0.39536884       0.38906479       0.20102717
H       12.00000000      12.00000000      12.00000000      -0.00843895      -0.03512718      -0.01075377      -1.32880021      -1.35849835      -1.20657792      -1.32036126      -1.32337117      -1.19582415
O        8.93696800      12.00098400      12.00004400       0.01802341      -0.01134135       0.00899471       1.97887782       0.26604543       0.72365643       1.96085441       0.27738678       0.71466172
H        8.12719800      11.93606900      11.56246700      -0.00180157       0.00634285       0.00071249      -1.99511691      -0.26559410      -1.04458191      -1.99331534      -0.27193695      -1.04529440
H        8.99154600      11.29293800      12.65355400       0.00295011       0.00305657      -0.00353179       0.06859200       0.07707767       0.48339700       0.06564189       0.07402110       0.48692879
27
Properties=species:S:1:pos:R:3:REF_forces:R:3:DFT_forces:R:3:FOUNDATION_forces:R:3 REF_energy=-0.016397936684370507 charge=0 spin=1 external_field="0.0 0.0 0.0" config_type=ORCA_DFT source_file=C_DFTprod_cutcluster_0063.out orca_step=0 DFT_energy=-18720.100382311684 FOUNDATION_energy=-18720.083984375 pbc="F F F"
O       11.19420900      10.29255600      14.77933700       0.00198554      -0.00227301      -0.00558191       0.88840347      -0.59193371       1.16261072       0.88641793      -0.58966070       1.16819263
H       11.72985300       9.63307900      15.29481600       0.00393912      -0.00183473      -0.00187141      -0.68467680       0.63110807      -1.00177139      -0.68861592       0.63294280      -0.99989998
H       11.22075400      11.04695900      15.38400400      -0.00425967       0.00744777       0.00515769      -0.12263777       0.13506890      -0.25375469      -0.11837810       0.12762113      -0.25891238
O       14.62375600      13.13234900      11.76608400       0.01647484      -0.01678735       0.03628981      -1.34040118      -0.62453890       0.33392015      -1.35687602      -0.60775155       0.29763034
H       15.19774800      12.42061300      11.47277500      -0.02318173       0.01007783      -0.01784405       0.08592540      -0.05527466      -0.29573551       0.10910713      -0.06535249      -0.27789146
H       13.70596700      12.71371900      11.82462400      -0.00641130       0.00911095      -0.00533000       1.00756337       0.51871779      -0.20836386       1.01397467       0.50960684      -0.20303386
O       15.32721100      12.90476300      14.36655700      -0.00775966      -0.00862600      -0.02312154       2.01159182       1.09876524       1.60582739       2.01935148       1.10739124       1.62894893
H       15.09170400      13.04616300      13.45145800      -0.00045116       0.01261592       0.02049347      -0.00212095       0.50668240      -1.23101405      -0.00166979       0.49406648      -1.25150752
H       16.04192100      13.59642700      14.58419600       0.00950574      -0.01205252      -0.00006269      -1.73962236      -1.66078447      -0.54144089      -1.74912810      -1.64873195      -0.54137820
O       15.00961800       9.93569400      13.59009800       0.00092931       0.02748396      -0.00312263      -0.19378211      -0.18783782      -0.58157736      -0.19471142      -0.21532178      -0.57845473
H       14.87695200      10.88342400      13.59779600       0.01677050      -0.01399088      -0.00049308       0.17689659       0.49891895       0.59619614       0.16012609       0.51290983       0.59668922
H       14.74896100       9.72470900      12.68569100      -0.00625964      -0.00437439       0.00633383       0.02658423      -0.39516897       0.09916005       0.03284387      -0.39079458       0.09282622
O       13.17397800      14.97294100       9.83486800       0.00594022      -0.01310901      -0.00687963       0.14500689       0.21002382       0.57063371       0.13906667       0.22313283       0.57751334
H       13.12730300      15.74974700       9.26719000      -0.00498117       0.00400119       0.00938283       0.04430258       0.01253387       0.15892962       0.04928375       0.00853268       0.14954679
H       13.59401700      15.26585800      10.67300200       0.00458579       0.00831343      -0.00077752      -0.34066014      -0.36221843      -0.81310228      -0.34524593      -0.37053186      -0.81232476
O       13.17264300      14.24792100      15.23724500      -0.00153069      -0.00694424      -0.00933387      -0.95508967      -1.63021225      -1.26616504      -0.95355898      -1.62326801      -1.25683117
H       12.28239400      13.94694700      14.89224700      -0.00307512       0.00899658       0.00270169       1.53535915       0.65234867       0.58116912       1.53843427       0.64335209       0.57846743
H       13.82295100      13.58086600      14.83527600      -0.00613244       0.00097431      -0.00527369      -0.88345893       1.21678068       0.94918657      -0.87732649       1.21580637       0.95446026
O       10.54525600      13.24947700       9.95537600      -0.01175499      -0.00083430       0.00961848      -1.01040793      -0.74371607      -1.67446999      -0.99865294      -0.74288177      -1.68408847
H       10.30355800      13.11446800       9.00364400       0.00404750      -0.01463623      -0.00211850      -0.07040062      -0.10401800       1.32654962      -0.07444812      -0.08938177       1.32866812
H       11.33672000      13.75458400       9.83745600       0.00753954       0.01024449       0.00152665       1.25397411       0.91703862       0.34758412       1.24643457       0.90679413       0.34605747
O       12.00000000      12.00000000      12.00000000       0.02151916      -0.00848528      -0.01480885       1.39295242       0.20883396       1.04433112       1.37143326       0.21731924       1.05913997
H       11.42274000      12.03044600      11.26481000      -0.01080514      -0.00045777      -0.00188918      -1.17025615       0.47833198      -1.62037058      -1.15945101       0.47878975      -1.61848140
H       11.70314600      11.24749600      12.49691300       0.00442285       0.00814324       0.00576132      -0.05484827      -0.63303573       0.74301272      -0.05927112      -0.64117897       0.73725140
O        8.85739600       9.04893900      13.67403600      -0.00572310       0.00142418      -0.00568513      -1.26214204      -1.03507592      -0.05366875      -1.25641894      -1.03650010      -0.04798362
H        9.44211700       9.64627900      14.13473900      -0.01115890      -0.00425127       0.00700846       0.29720093       0.11420229       0.62873473       0.30835983       0.11845356       0.62172627
H        8.25780200       8.59383600      14.31080800       0.00582403      -0.00017708      -0.00007987       0.96474385       0.82445962      -0.60641134       0.95891982       0.82463670      -0.60633147
27
Properties=species:S:1:pos:R:3:REF_forces:R:3:DFT_forces:R:3:FOUNDATION_forces:R:3 REF_energy=-0.0008044276000873651 charge=0 spin=1 external_field="0.0 0.0 0.0" config_type=ORCA_DFT source_file=C_DFTprod_cutcluster_0064.out orca_step=0 DFT_energy=-18719.8328356776 FOUNDATION_energy=-18719.83203125 pbc="F F F"
O       13.53599500      14.65489900      13.25357400      -0.02626155       0.01361480      -0.01018218       0.55849888       0.10907063       0.77930071       0.58476043       0.09545583       0.78948289
H       13.71152200      15.53104500      13.57949900       0.01553495       0.03481757      -0.01452032       0.32421984       0.90476387       0.06782447       0.30868489       0.86994630       0.08234479
H       13.89592600      14.08219200      13.97092700       0.02554950      -0.02127389       0.02990899      -0.20438354      -0.76373545      -0.65614774      -0.22993304      -0.74246156      -0.68605673
O       10.22170500      10.22357700       9.41134500       0.00910416      -0.00180941       0.00767259      -0.04263918       0.30458555       0.12754781      -0.05174334       0.30639496       0.11987522
H        9.33494400       9.99110500       9.10623100      -0.00128449       0.01215930      -0.00380690       0.24805157       0.14389391       0.15965431       0.24933606       0.13173461       0.16346121
H       10.14437300      11.06755500       9.89868900      -0.00786057      -0.02031556      -0.00969734      -0.12692262      -0.49925742      -0.25503000      -0.11906205      -0.47894186      -0.24533266
O       10.98254700      14.87100100      13.35489900      -0.00004308       0.02739577       0.03205557      -0.44672741       0.75154518      -2.36736851      -0.44668433       0.72414941      -2.39942408
H       11.97616100      14.90365900      13.34807400      -0.00632287      -0.01886172      -0.00798518      -0.85919476      -0.54988403      -0.05890567      -0.85287189      -0.53102231      -0.05092049
H       10.72647800      14.83527100      12.38003800      -0.00467118      -0.02103749      -0.01851157       0.53928975       0.09158085       2.06342002       0.54396093       0.11261834       2.08193159
O       14.57228900      13.96130600      10.86961700      -0.00394467      -0.00341525      -0.00760517       1.51120564       1.84980211      -1.07754705       1.51515031       1.85321736      -1.06994188
H       15.30637500      14.54635100      10.42762600       0.00695514       0.00652033      -0.00611209      -2.33817363      -1.55771130       1.62269784      -2.34512877      -1.56423163       1.62880993
H       14.15354000      14.44716000      11.63212100       0.00727747      -0.01038578       0.00352934       0.96095322      -0.53829381      -0.92102882       0.95367575      -0.52790803      -0.92455816
O       13.89223800      12.13907400      14.33926400       0.04466449      -0.00209278       0.02083124       0.58892958       0.85666001       0.39545734       0.54426509       0.85875279       0.37462610
H       13.38632200      12.22174800      15.14692200      -0.01663436      -0.00347293      -0.00212261      -0.26206701      -0.23487487       0.28677660      -0.24543265      -0.23140194       0.28889921
H       13.23433500      11.93846000      13.64993600      -0.04158777      -0.01114449      -0.02563313      -0.25037178      -0.54183355      -0.25568399      -0.20878401      -0.53068906      -0.23005086
O       10.96221300      12.89720500      10.12333300       0.00696566       0.02327721       0.00209398      -1.06674919       1.86637704       0.91757310      -1.07371485       1.84309983       0.91547912
H       11.53550000      12.73446000       9.40036400      -0.00952842       0.00935789       0.01286684       1.03621266      -0.43095605      -1.14964475       1.04574108      -0.44031394      -1.16251159
H       10.79890800      13.87099000      10.03371700      -0.00536337      -0.00862288      -0.00551364       0.06384060      -1.31384837       0.22994087       0.06920397      -1.30522549       0.23545451
O       12.31944000      11.21850500      12.38369100      -0.00153026      -0.00141546       0.03877391       0.32901037      -1.28637716       1.83144011       0.33054063      -1.28496170       1.79266620
H       12.95936500      10.83725300      11.77135600      -0.00039512       0.01949973       0.00007528       0.05955375       0.05541561      -0.43079639       0.05994887       0.03591588      -0.43087167
H       12.00000000      12.00000000      12.00000000       0.01048230       0.00076913      -0.01310995      -0.81838096       1.61653279      -1.10481360      -0.82886326       1.61576366      -1.09170365
O       13.26578500      10.19088200      10.20756300      -0.00016510      -0.02158924      -0.01000580       0.36312706      -0.47558655      -0.25185603       0.36329216      -0.45399731      -0.24185023
H       12.50106700       9.59828600      10.15297200      -0.00095871      -0.01306975      -0.00564434      -0.01858147       0.35401723      -0.26627694      -0.01762276       0.36708698      -0.26063260
H       13.16123200      10.87236100       9.53723300       0.00583921       0.01388862       0.00274308      -0.10084603      -0.21749308      -0.04289243      -0.10668524      -0.23138170      -0.04563551
O       10.13790500      12.76282700      14.59903000      -0.01173650      -0.00844209      -0.02777731       0.89533044       0.39832793       0.30974967       0.90706694       0.40677002       0.33752698
H       10.24482200      13.62045500      14.12047300      -0.00285770       0.01217546       0.00054074      -0.15871488      -0.72270892       0.30205435      -0.15585718      -0.73488438       0.30151361
H        9.28805500      12.38809000      14.43359200       0.00877275      -0.00652723       0.01713552      -0.78447078      -0.17001195      -0.25544534      -0.79324353      -0.16348472      -0.27258086
27
Properties=species:S:1:pos:R:3:REF_forces:R:3:DFT_forces:R:3:FOUNDATION_forces:R:3 REF_energy=0.0052308032936707605 charge=0 spin=1 external_field="0.0 0.0 0.0" config_type=ORCA_DFT source_file=C_DFTprod_cutcluster_0065.out orca_step=0 DFT_energy=-18720.096331696706 FOUNDATION_energy=-18720.1015625 pbc="F F F"
O       13.49247900      11.21970700      11.65896000      -0.01167953      -0.01258851       0.03178000      -0.41802916       1.91668283       1.85826516      -0.40634963       1.92927134       1.82648516
H       13.57537700      10.99633000      10.76081000       0.01991436       0.00224819      -0.02956583       0.58260760      -0.80317227      -2.29820444       0.56269324      -0.80542046      -2.26863861
H       13.51652300      10.40629500      12.12606800      -0.00613283       0.00273921      -0.00299934       0.05029916      -1.39320789       0.63499537       0.05643199      -1.39594710       0.63799471
O       12.46920400      13.47222100       9.62081300      -0.00683072       0.00580513      -0.01522884      -0.51858476       0.04957555      -0.40066871      -0.51175404       0.04377042      -0.38543987
H       12.09997300      12.95003000      10.37646200      -0.00428829       0.00807552       0.01483611      -0.11040056       0.83543442      -0.41241326      -0.10611227       0.82735890      -0.42724937
H       11.73504700      14.03134100       9.28652900      -0.00005953      -0.00392764       0.00610047       0.49102001      -0.62768459       0.50451913       0.49107954      -0.62375695       0.49841866
O        9.82720100      14.59671700      12.58294000       0.01272866      -0.00601778       0.00823542      -2.37288383       0.96078517       1.76136896      -2.38561249       0.96680295       1.75313354
H       10.37792900      13.82009300      12.62240500      -0.00977142       0.00645867      -0.00533414       0.30304335      -0.75573382       0.02015802       0.31281477      -0.76219249       0.02549216
H        9.12685100      14.51069600      13.31654400      -0.00264371      -0.00256180      -0.00501119       1.83825457       0.11101587      -1.76468800       1.84089828       0.11357767      -1.75967681
O       13.33422700      11.79920000       7.20814100      -0.00330858       0.00907953      -0.01805421       1.14548774       0.22340019      -1.21254417       1.14879632       0.21432066      -1.19448996
H       12.93684800      12.17237200       7.97850800       0.00642869       0.00819604      -0.00197090      -0.79591754       0.86859821       1.18704222      -0.80234623       0.86040217       1.18901312
H       13.93439600      12.51837000       6.91140300      -0.00020247      -0.01007848       0.00322147      -0.52472209      -0.74673789       0.15174832      -0.52451962      -0.73665941       0.14852685
O       12.05541400       8.47599000      11.90285900      -0.02020526       0.01436523       0.00155524       0.70763963       2.06730655       0.95071576       0.72784489       2.05294132       0.94916052
H       11.34976200       9.07914900      11.61568200       0.01107837      -0.00948039       0.00038447       0.09502952      -0.25709522       0.22906356       0.08395115      -0.24761483       0.22867909
H       11.82851300       7.65801900      11.54059400       0.00020140      -0.00788535      -0.00250138      -0.39965508      -2.06557168      -0.81848283      -0.39985648      -2.05768633      -0.81598145
O       14.25401600      15.78367800      10.69017900       0.00972495      -0.00683795      -0.00473881      -0.88904008      -0.88599049      -1.82377529      -0.89876503      -0.87915254      -1.81903648
H       13.53753300      15.22577000      10.25285800      -0.00609825       0.00822693       0.00319714       1.35310819       0.82269728       1.15617890       1.35920644       0.81447035       1.15298176
H       14.02743500      15.87167200      11.60473000      -0.00549824       0.00226263      -0.00326390      -0.40944014      -0.06753821       0.70559298      -0.40394190      -0.06980084       0.70885688
O       11.12873700      12.41958300      11.82871300       0.00922427       0.01942958       0.01384577       1.26202855       1.48553158       0.63786986       1.25280428       1.46610200       0.62402409
H       10.51939600      11.82092600      11.45496900      -0.02372543      -0.00982405      -0.00179701      -0.95385692      -1.45522953      -0.45099940      -0.93013149      -1.44540548      -0.44920239
H       12.00000000      12.00000000      12.00000000       0.01580046      -0.00588330      -0.00369085      -0.20910670      -0.52043261      -0.10558678      -0.22490716      -0.51454931      -0.10189593
O       14.47291800      10.24168200       9.24640800      -0.00000966      -0.00510628       0.00994563       2.58602774       2.19345491       0.07558638       2.58603740       2.19856119       0.06564075
H       14.08542000      10.70863200       8.48049700       0.02080203      -0.00123923       0.00956364      -0.05652530      -0.37946256      -0.20775184      -0.07732733      -0.37822333      -0.21731548
H       15.34123600      10.81580100       9.33793300      -0.01558112      -0.00008702      -0.00975935      -2.43194269      -1.91600787       0.00725180      -2.41636157      -1.91592085       0.01701115
O       10.00552900       9.81998800      10.80461900       0.01479802      -0.00547582      -0.00924374      -1.04477587      -0.73865706      -1.33315195      -1.05957389      -0.73318124      -1.32390821
H        9.27095700       9.18751200      10.60230100       0.00421077       0.00296414       0.00287120       0.61848056       0.79871315       0.66512994       0.61426979       0.79574901       0.66225874
H       10.44390400       9.83305700       9.93571700      -0.00887687      -0.00285732       0.00762347       0.10185405       0.27932585       0.28278044       0.11073092       0.28218317       0.27515697
27
Properties=species:S:1:pos:R:3:REF_forces:R:3:DFT_forces:R:3:FOUNDATION_forces:R:3 REF_energy=0.014322626710054465 charge=0 spin=1 external_field="0.0 0.0 0.0" config_type=ORCA_DFT source_file=C_DFTprod_cutcluster_0066.out orca_step=0 DFT_energy=-18719.17513049829 FOUNDATION_energy=-18719.189453125 pbc="F F F"
O       10.78232200      15.42552500      14.21571400       0.00006475      -0.01091053       0.00647131       0.25437417       0.56903623      -0.79956445       0.25430942       0.57994676      -0.80603576
H       11.49698500      14.89002100      14.62567500      -0.00319105       0.01306166      -0.01283126      -0.25853791       0.33043923      -0.77123325      -0.25534686       0.31737757      -0.75840199
H       11.04449600      15.75437500      13.31820500       0.01043888       0.01000435       0.00207405       0.04728357      -0.71394979       1.53042726       0.03684469      -0.72395414       1.52835321
O       12.63960600      13.47415100      15.18943400       0.00210793       0.00630649       0.01338092       0.07111384      -0.82706718       0.43781961       0.06900591      -0.83337367       0.42443869
H       12.40704600      13.06679700      16.05216500       0.00554627      -0.00182520      -0.00542496       0.23576334       0.27380194      -1.07337950       0.23021707       0.27562714      -1.06795454
H       12.73560900      12.77224700      14.49616900      -0.02452202       0.00385981      -0.00343594      -0.36256517       0.77020913       0.78491595      -0.33804315       0.76634932       0.78835189
O        9.75448500      12.83033000      13.18937100       0.01223764       0.00546721      -0.00610393       0.19291513      -0.88348171       0.48385918       0.18067749      -0.88894892       0.48996311
H       10.73357700      12.83351000      13.21357500      -0.01279553       0.00565644       0.00418460      -1.05203708       0.61745330      -0.16284608      -1.03924155       0.61179686      -0.16703068
H        9.39912100      13.48546400      12.58217500      -0.00758129       0.00440569       0.01668172       0.69313532       0.27830122      -0.08601019       0.70071661       0.27389553      -0.10269191
O        9.26848600      10.43656500      11.83307200      -0.00030192       0.02114862       0.01271234       0.47861264      -2.69870264      -1.21660199       0.47891456      -2.71985126      -1.22931433
H       10.00094500       9.92111900      12.21971400       0.01667740      -0.00154497      -0.00999402      -0.53689323       0.61175136      -0.28337025      -0.55357063       0.61329633      -0.27337623
H        9.18154500      11.20537000      12.34108300      -0.01303982      -0.02290574      -0.00142395       0.02973013       2.05691251       1.48965383       0.04276995       2.07981825       1.49107778
O        9.78785000      14.16165500      10.50415400      -0.00376769       0.01070405      -0.02724051       0.78287146       3.03184153      -1.44698894       0.78663915       3.02113748      -1.41974843
H        9.02006200      14.39307700       9.96506900       0.00689178      -0.00958218       0.00068040      -0.77507890      -1.00946166       0.19500698      -0.78197068      -0.99987948       0.19432658
H       10.24948300      15.01781100      10.19116500      -0.00434461       0.00733554       0.01173203      -0.02119345      -1.99051726       1.27021890      -0.01684884      -1.99785280       1.25848687
O       12.64949200      12.23002300      12.71437900       0.02315113      -0.04004482       0.00973520      -0.00522145      -0.91825727      -0.51935187      -0.02837258      -0.87821245      -0.52908707
H       12.00000000      12.00000000      12.00000000      -0.02119040      -0.01446548       0.00413055       0.99889684      -0.10043239       0.74439854       1.02008724      -0.08596691       0.74026799
H       13.26221900      11.46529400      12.83446100       0.01295963       0.01938945      -0.01011587      -0.91085944       0.63901329      -0.59492529      -0.92381907       0.61962384      -0.58480942
O       13.25167800       8.74523900      12.79601000      -0.01333127      -0.01108861      -0.00283136      -0.24570081      -0.61104637      -2.16189518      -0.23236954      -0.59995776      -2.15906382
H       14.08254400       8.30095300      12.72210300       0.01735021       0.00137691       0.00861870       0.71424593      -0.45662929      -0.25455101       0.69689572      -0.45800620      -0.26316971
H       13.23138400       9.14750900      13.62529100       0.00670694       0.01068708       0.00554678      -0.34473534       1.02728507       2.31899783      -0.35144228       1.01659799       2.31345105
O       12.63930000       9.64221500      15.22622600      -0.00221828       0.00096477       0.00114671      -0.98490253       0.80184836      -1.25933727      -0.98268425       0.80088359      -1.26048398
H       12.17982200      10.18125100      15.84731700       0.00277253      -0.00022614      -0.00751710      -1.27903275       1.14545858       0.15297931      -1.28180528       1.14568472       0.16049641
H       13.20337000       9.25249000      15.83390100      -0.00076930      -0.00660990      -0.01043469       2.25667222      -1.83239816       1.48443681       2.25744152      -1.82578826       1.49487150
O       11.53265900       8.82683600      10.68099500       0.02813557       0.00571340       0.00354578      -1.59319612      -0.91089744       1.52235760      -1.62133169      -0.91661084       1.51881182
H       10.57596300       8.47786000      10.77202700      -0.01081505      -0.00886093      -0.00217025       2.47151336       0.88654842      -0.14445467       2.48232841       0.89540935      -0.14228442
H       11.98350900       8.74394500      11.58218100      -0.02717201       0.00198275      -0.00111691      -0.85717372      -0.08705900      -1.64056186      -0.83000171      -0.08904175      -1.63944495
27
Properties=species:S:1:pos:R:3:REF_forces:R:3:DFT_forces:R:3:FOUNDATION_forces:R:3 REF_energy=0.009617017763957847 charge=0 spin=1 external_field="0.0 0.0 0.0" config_type=ORCA_DFT source_file=C_DFTprod_cutcluster_0067.out orca_step=0 DFT_energy=-18719.593898607236 FOUNDATION_energy=-18719.603515625 pbc="F F F"
O       12.31136000      12.29031300      14.71789900       0.00263520       0.02527136       0.00934070      -1.18664853      -1.15799266      -0.30136684      -1.18928373      -1.18326402      -0.31070754
H       13.27023400      12.32741300      14.60130200      -0.01096097       0.00634319       0.00495814       0.18128320       0.71483523       0.32863982       0.19224417       0.70849204       0.32368168
H       11.86189400      13.12051200      14.90623900       0.00318986      -0.03241532      -0.01639499       0.91673672       0.28267230       0.15381045       0.91354686       0.31508762       0.17020544
O       11.52378800      14.95802300      12.14954800      -0.00083442       0.00417288      -0.01508854       0.28692012       1.88665708      -0.11995174       0.28775454       1.88248420      -0.10486320
H       12.34976200      15.30786500      11.77056600       0.00502322       0.00235345       0.00278455      -0.50887092      -0.25292412       0.31965762      -0.51389414      -0.25527757       0.31687307
H       11.51160600      14.04863400      11.92528900      -0.00442644      -0.02295273       0.01040915       0.10902178      -1.99700945      -0.49378040       0.11344822      -1.97405672      -0.50418955
O       10.28325000       9.70260200      12.32269900      -0.00321922      -0.00620594       0.00122724      -0.65820822      -2.13273301       1.43763671      -0.65498900      -2.12652707       1.43640947
H       10.85960000       8.91274100      12.46414100       0.00352773      -0.00300002      -0.00481860      -0.24445434       0.97111654      -0.52823411      -0.24798207       0.97411656      -0.52341551
H        9.51298400       9.38304500      12.87520000       0.00138528       0.00234703      -0.00110735       0.86975927       1.01834909      -0.95717396       0.86837399       1.01600206      -0.95606661
O       13.88306900       9.32609100      13.98821300      -0.00203961      -0.00222665       0.00371908       2.06380183      -2.84578878       1.29107009       2.06584144      -2.84356213       1.28735101
H       13.81060900       8.37255400      14.31799900       0.00284315       0.01038669       0.01172587       0.66092027       1.86343096      -0.61680821       0.65807712       1.85304427      -0.62853408
H       12.99924900       9.50839400      13.83858700       0.00327428       0.01101358      -0.00886438      -2.95906989       1.31950839      -0.35470716      -2.96234417       1.30849481      -0.34584278
O       14.97505600      12.07757900      14.39964000       0.00720916      -0.00487754       0.00705230       2.15098152      -2.17893049      -0.60701776       2.14377236      -2.17405295      -0.61407006
H       15.76284200      12.51432200      14.76257000      -0.00691198      -0.01035873      -0.00329616      -0.53216790       0.16194110      -0.06755646      -0.52525592       0.17229983      -0.06426030
H       15.38660000      11.18483800      14.09470300       0.00675926       0.00648895      -0.00202184      -1.52053371       2.04667607       0.54646493      -1.52729297       2.04018712       0.54848677
O       12.00000000      12.00000000      12.00000000      -0.01856963       0.00192894       0.01875882       0.61633893       0.97605969      -0.24715806       0.63490856       0.97413075      -0.26591688
H       11.43966600      11.37240000      11.56206900       0.01328421       0.00704468      -0.02070158      -0.50153577      -0.53169065      -0.01218153      -0.51481998      -0.53873533       0.00852005
H       11.93524800      11.87223500      12.96201000      -0.00520053      -0.00137840       0.01701423      -0.09794248       0.01041801       0.27511644      -0.09274195       0.01179641       0.25810221
O       15.01697700      11.69059800      11.23449400       0.00255712      -0.00376155       0.02117811      -0.13589767       0.33225510      -0.94497921      -0.13845479       0.33601665      -0.96615732
H       14.28576900      12.29401100      11.53910300       0.00477314       0.00331341      -0.01170218       0.82163912      -1.02171148      -1.08997726       0.81686598      -1.02502489      -1.07827508
H       15.11525300      11.63773100      10.23609900      -0.00306061      -0.00524770      -0.01016308      -0.73182729       0.53705819       2.08615516      -0.72876668       0.54230589       2.09631824
O       11.76406400      15.18219400      14.85005500       0.01313842       0.00285270       0.00172516      -1.49997949      -2.40922592      -1.23245171      -1.51311791      -2.41207862      -1.23417687
H       11.36773500      14.90972600      13.94265900       0.00951747       0.00104295       0.00051551       1.20510797       1.19298481       1.71743112       1.19559050       1.19194186       1.71691561
H       12.02482500      16.07396000      14.76230200      -0.01591932       0.00765969       0.00169355       0.35586647       1.43898823      -0.27862739       0.37178579       1.43132854      -0.28032094
O       14.93981800       8.11518700      11.90158900      -0.01512258      -0.01217728      -0.02434220      -0.66540109      -0.95230465      -1.86753645      -0.65027851      -0.94012737      -1.84319425
H       14.28268700       8.77566200      12.19847200      -0.00264852       0.00846033      -0.00135642       0.56105496      -0.33035932      -0.36729708       0.56370348      -0.33881965      -0.36594066
H       14.65929100       7.73403500      11.01000300       0.00979659       0.00392182       0.00775470       0.44310519       1.05771978       1.93082298       0.43330860       1.05379796       1.92306828
27
Properties=species:S:1:pos:R:3:REF_forces:R:3:DFT_forces:R:3:FOUNDATION_forces:R:3 REF_energy=-0.01757235410696012 charge=0 spin=1 external_field="0.0 0.0 0.0" config_type=ORCA_DFT source_file=C_DFTprod_cutcluster_0068.out orca_step=0 DFT_energy=-18719.656244229107 FOUNDATION_energy=-18719.638671875 pbc="F F F"
O       13.27852100       9.90755300      13.06149700       0.00401401      -0.02089653       0.00139599      -0.73212266      -0.92515991       1.17917078      -0.73613667      -0.90426338       1.17777479
H       13.09419600       9.35383500      12.28431300      -0.00524824       0.00305488       0.03145968       0.30806811      -0.23055804       0.38485833       0.31331635      -0.23361292       0.35339865
H       12.80444900       9.49081700      13.83674100       0.00922701       0.00522480      -0.01406733       0.65206775       0.58747110      -1.40392486       0.64284074       0.58224630      -1.38985753
O        9.77087600      13.88118500      14.82774600       0.02256854       0.00339291      -0.01560933      -2.66749494       0.91421637       2.02507418      -2.69006348       0.91082346       2.04068351
H        9.95477700      12.91930200      14.81601300      -0.00516753       0.00539890       0.00457264      -0.44357292       0.21916044      -0.00105410      -0.43840539       0.21376154      -0.00562674
H        8.93164300      14.05283400      15.42950400      -0.01226590      -0.01645639       0.01113759       2.79030730      -0.73456212      -2.00127543       2.80257320      -0.71810573      -2.01241302
O       13.71188300      12.35917000       9.82058400       0.03332987       0.01320209      -0.01370075      -0.66692755      -0.78672544       0.41140718      -0.70025742      -0.79992753       0.42510793
H       13.86988300      13.06474800       9.23470500      -0.00693686       0.00259680       0.00140209      -0.36650569       2.05813641      -1.00223856      -0.35956883       2.05553961      -1.00364065
H       14.48446500      11.86537700       9.61968800      -0.00492560      -0.01366559      -0.00426016       1.25919283      -1.25052348       0.33021303       1.26411843      -1.23685789       0.33447319
O       12.55683400       9.67396600       9.53106900      -0.03165322      -0.00248080       0.00545224       0.43885819       0.85095412       0.12989101       0.47051141       0.85343492       0.12443877
H       12.88532500      10.41294000       8.98288900       0.01002960      -0.00884709      -0.00067328      -0.47947283      -0.35267017       0.31314702      -0.48950243      -0.34382308       0.31382030
H       12.37484300       8.94917100       8.94088000       0.01435970       0.00435847      -0.00192394      -0.11490266      -0.39971951      -0.41709482      -0.12926236      -0.40407798      -0.41517088
O       12.00000000      12.00000000      12.00000000       0.01175000      -0.00950482       0.01245959       0.98409166      -1.56079009      -0.52411865       0.97234166      -1.55128527      -0.53657824
H       12.35520900      12.12449000      11.09522600      -0.03418152       0.02133146       0.02593618      -0.45727371       0.31613875       0.56609129      -0.42309219       0.29480729       0.54015511
H       12.50257300      11.17271100      12.27728600       0.00224019      -0.01578618      -0.01661962      -0.75554531       1.37370442       0.03190765      -0.75778550       1.38949060       0.04852727
O       11.83499000      14.59627600      12.84784400      -0.01211498      -0.02363354       0.02105916       0.15943535      -0.76314610       0.23609208       0.17155033      -0.73951256       0.21503292
H       11.05518000      14.47253200      13.40696500      -0.00132239       0.02017322      -0.01153927      -0.14639461       0.44860622       0.09603704      -0.14507222       0.42843300       0.10757631
H       12.14389200      13.66654200      12.79063900       0.00999533      -0.00581252      -0.00580352      -0.04678333       0.74192489      -0.32677721      -0.05677866       0.74773741      -0.32097369
O       14.91323200       8.78100400      10.75219500       0.01100543       0.01241214      -0.00419116      -1.81478116      -1.20417302      -0.71882784      -1.82578659      -1.21658516      -0.71463668
H       14.14978000       9.25478800      10.35247700      -0.02546701       0.00978472      -0.01373948       0.58793261      -0.27932678       0.15801096       0.61339962      -0.28911150       0.17175044
H       15.56097900       9.39603800      11.00201400       0.01312550      -0.00234615       0.02373624       1.24573382       1.40767790       0.54659611       1.23260832       1.41002405       0.52285987
O       15.90265100      11.26354500      13.83639900      -0.00576121       0.02227158      -0.00175642      -1.67050118      -0.35855018      -0.36195402      -1.66473997      -0.38082176      -0.36019760
H       14.90937100      11.06141200      13.67692100       0.00581057      -0.00767608      -0.01817808       2.80004556      -0.14065015       0.17841658       2.79423499      -0.13297407       0.19659466
H       16.46806500      10.48488300      13.66120400      -0.00561634      -0.01816529       0.00211540      -1.07432798       0.42046163       0.10524143      -1.06871164       0.43862692       0.10312603
O       10.60455600      11.45102500      14.30344400      -0.01573772       0.00476281       0.01278201      -0.07536922      -0.61435481       0.47861403      -0.05963150      -0.61911762       0.46583202
H       11.43667600      11.58527900      14.77681800       0.00706804       0.01884453       0.01828167      -0.04273225       0.02242084      -0.46215650      -0.04980029       0.00357631      -0.48043817
H       10.76304400      11.55897000      13.35163300       0.01187475      -0.00153832      -0.04972811       0.32897489       0.24003677       0.04865325       0.31710014       0.24157509       0.09838136
27
Properties=species:S:1:pos:R:3:REF_forces:R:3:DFT_forces:R:3:FOUNDATION_forces:R:3 REF_energy=0.03453031751996605 charge=0 spin=1 external_field="0.0 0.0 0.0" config_type=ORCA_DFT source_file=C_DFTprod_cutcluster_0069.out orca_step=0 DFT_energy=-18719.32093843248 FOUNDATION_energy=-18719.35546875 pbc="F F F"
O       12.34558600      13.63698100       9.62400000       0.00982762      -0.00932112      -0.00097955      -0.16929286       0.10462565       2.60823333      -0.17912048       0.11394677       2.60921288
H       12.67282200      13.84728500       8.78250500      -0.00625635       0.00214577       0.00044423       0.63907921       0.40410787      -2.01927156       0.64533556       0.40196210      -2.01971579
H       12.69379400      14.32893800      10.22142900       0.00032078       0.01219191       0.00695950      -0.46555508      -0.27865089      -0.49734127      -0.46587586      -0.29084280      -0.50430077
O       15.37472900      12.98626500      10.27324500      -0.01886903       0.00773124      -0.01146862       0.33291562       1.25561349       0.12569420       0.35178465       1.24788225       0.13716282
H       15.80307100      13.87729400      10.24227000      -0.00113434      -0.00192161       0.00483716      -0.52279628      -1.13263901      -0.03537283      -0.52166194      -1.13071740      -0.04020999
H       14.42043200      13.15958300      10.25189900       0.01691272      -0.00741946       0.00072004       0.25359235      -0.18104460      -0.14215620       0.23667963      -0.17362514      -0.14287624
O       11.25432400       9.30243200      12.19204900       0.00805106       0.00072176      -0.00240400       0.21627983      -3.19724482       0.12814986       0.20822877      -3.19796658       0.13055386
H       11.32114100      10.21437800      12.23881800       0.00171840       0.00592816      -0.00141488       0.13744609       2.86189067      -0.03381839       0.13572769       2.85596251      -0.03240351
H       12.17653200       8.94481400      12.28774300      -0.01428464      -0.00025210       0.00264447      -1.27150229       0.26255855      -0.17516398      -1.25721765       0.26281065      -0.17780845
O       11.12148600      14.44422400      13.05186600      -0.01686057      -0.01051984       0.00568567       0.03996508       0.41913577      -0.29677783       0.05682565       0.42965561      -0.30246350
H       10.85593200      15.07874800      12.38151700       0.00652191       0.02243658      -0.01424273      -0.10841937      -0.20536899       0.01314569      -0.11494128      -0.22780557       0.02738842
H       11.34547300      13.59003500      12.65064900      -0.00713382       0.00633357      -0.00159949       0.02232242      -0.25032427      -0.15950596       0.02945624      -0.25665784      -0.15790647
O       11.39925200      14.00368400      15.58199500       0.01052225       0.03516285      -0.00480624      -0.17437300       0.07934708      -0.20264604      -0.18489525       0.04418423      -0.19783980
H       11.08212300      14.25560800      14.64112500       0.00683906      -0.01656197       0.01436945      -0.12222033      -0.30800970       2.48166891      -0.12905939      -0.29144773       2.46729946
H       10.77955500      13.97368100      16.34981100      -0.00334739      -0.01988360      -0.00950052       0.32638023       0.23210898      -1.78254236       0.32972762       0.25199258      -1.77304184
O       12.00000000      12.00000000      12.00000000      -0.02115415      -0.02029217      -0.00613154      -0.88027154       0.34793796       0.21489673      -0.85911739       0.36823013       0.22102827
H       12.04333700      12.36472100      11.11010200       0.00946627      -0.01268802       0.00876114       0.35379354      -0.36238108      -0.27625498       0.34432727      -0.34969306      -0.28501612
H       12.87471500      11.77655400      12.33162300       0.01316986      -0.00381715       0.00102738       0.58546219       0.33925297      -0.00350806       0.57229233       0.34307012      -0.00453544
O       13.64622500       8.28973400      12.50209200       0.00137571      -0.01262205       0.00054036       0.82805196      -0.05934688      -0.09038945       0.82667625      -0.04672483      -0.09092981
H       14.07579600       7.91401600      11.69970600       0.01140801       0.01458965      -0.00092536      -0.13079964       0.90741740       0.98380262      -0.14220765       0.89282775       0.98472798
H       14.06986400       9.11252800      12.83318200      -0.00601496      -0.00010582      -0.00667132       0.07174767      -1.05203970      -0.72633279       0.07776263      -1.05193388      -0.71966147
O        9.92205900      10.51123600      15.16737500       0.00593028      -0.00794916       0.00176405       0.11452270      -2.26334743       0.78327846       0.10859242      -2.25539827       0.78151441
H        9.98948800      11.29470100      14.65910400       0.00375129       0.01344817       0.00342763       0.40620507       0.88347816      -1.00913333       0.40245378       0.87002999      -1.01256096
H       10.32201100       9.74274000      14.68945400      -0.01519334       0.00041721       0.00110902      -0.48349732       1.37565944       0.15751217      -0.46830398       1.37524223       0.15640315
O       14.64751700      12.15851900      13.14942700       0.01158252       0.00621317      -0.00775888      -0.90129236       2.03361080       0.03006715      -0.91287488       2.02739763       0.03782603
H       14.85773900      13.07420900      12.80906600      -0.00924651      -0.00477570       0.00985303      -0.23550880      -1.65237480       0.54138484      -0.22626229      -1.64759910       0.53153181
H       15.32043600      11.60233800      12.80534100       0.00209730       0.00080978       0.00575964       1.13776486      -0.56397260      -0.61761893       1.13566756      -0.56478238      -0.62337857
27
Properties=species:S:1:pos:R:3:REF_forces:R:3:DFT_forces:R:3:FOUNDATION_forces:R:3 REF_energy=-0.006530759877932724 charge=0 spin=1 external_field="0.0 0.0 0.0" config_type=ORCA_DFT source_file=C_DFTprod_cutcluster_0070.out orca_step=0 DFT_energy=-18720.385437009878 FOUNDATION_energy=-18720.37890625 pbc="F F F"
O       13.69451100       9.60970700      10.36111800      -0.01301421      -0.01648387       0.00566969       0.47388248      -1.57738456       0.45153043       0.48689669      -1.56090069       0.44586074
H       12.97022300       9.80725200       9.73686900      -0.00568474       0.00684846      -0.00616771      -0.17674937      -0.75499123       0.28282204      -0.17106463      -0.76183969       0.28898975
H       13.81690400       8.63058400      10.58120800       0.00277711       0.02152523       0.00834951      -0.84936230       2.09917101      -0.99876752      -0.85213941       2.07764578      -1.00711703
O       10.87067700      10.18301100       9.42575800       0.00084764      -0.01532580      -0.00932303       0.06277493       1.44155584       0.80588386       0.06192729       1.45688164       0.81520689
H       10.65143900      11.03655800       8.99685000      -0.00289539       0.00620476      -0.00390779       0.15351158      -0.81533035      -0.09432838       0.15640697      -0.82153511      -0.09042059
H       10.85893300      10.50730500      10.36747500       0.01343983       0.00843237       0.01144299       0.07364180      -0.50824435      -0.52090338       0.06020197      -0.51667672      -0.53234637
O       15.46408100      11.23644600      11.38106200      -0.00758422       0.02787050       0.00899757       0.63227617       1.26015838       0.54160626       0.63986039       1.23228788       0.53260869
H       16.13256800      10.63961200      11.69048600       0.00101258      -0.01215567       0.01547619       0.51703037      -0.30827149       0.22209515       0.51601779      -0.29611582       0.20661896
H       14.91732900      10.75108000      10.77225200       0.00327090      -0.00822641      -0.02003330      -0.65299829      -0.72178759      -0.61827713      -0.65626919      -0.71356118      -0.59824383
O       13.32504200       9.86070500      13.38624700      -0.00067313      -0.01802545      -0.03251893       0.76439314      -0.21217804      -1.24859459       0.76506627      -0.19415259      -1.21607566
H       13.36759500      10.06740000      12.43391400      -0.01866463       0.02002697      -0.01941769      -0.98196212       0.43400996       0.07518348      -0.96329749       0.41398299       0.09460117
H       14.17691300       9.40957900      13.34425200       0.00763873       0.01733362       0.02630110       0.16678465      -0.23472739       1.13841720       0.15914592      -0.25206101       1.11211610
O       11.11561100      11.67864900      11.97993800       0.00890052       0.00583076      -0.01427221      -1.76105333      -1.51160694       1.02849472      -1.76995385      -1.51743770       1.04276693
H       12.00000000      12.00000000      12.00000000       0.00036678      -0.01427471       0.00517106       1.40741977       0.71491570      -0.02416781       1.40705299       0.72919041      -0.02933887
H       11.00659700      11.24291500      12.88154200       0.00103689       0.00194594       0.01006354       0.23729325       0.86325690      -1.15119492       0.23625636       0.86131096      -1.16125846
O        9.71386400      14.32995100      12.43079400      -0.00902065      -0.00798679      -0.00632649      -1.61321648       1.29213452       0.73290057      -1.60419583       1.30012131       0.73922706
H        8.78017800      14.06301600      12.52891700       0.00328748       0.00494129      -0.00116641       0.67084555       0.29694063      -0.03841671       0.66755807       0.29199934      -0.03725030
H       10.11951000      13.57286500      12.06534200       0.00402349      -0.00227099       0.01069356       0.99250668      -1.69506972      -0.61382573       0.98848319      -1.69279873      -0.62451929
O       11.43288300      11.61017600      14.87428500       0.00166793       0.01275307       0.02463783       0.81323649       1.70222253       0.20626589       0.81156856       1.68946946       0.18162806
H       10.92908000      12.42489300      15.10658700       0.01403998      -0.01295705      -0.01104718       0.33306165      -0.91006286      -0.26787889       0.31902167      -0.89710581      -0.25683171
H       12.37623300      11.96715800      14.87968400      -0.01179702      -0.00570078       0.00305529      -1.34872729      -0.88979567       0.18729208      -1.33693027      -0.88409489       0.18423679
O       13.57545000      13.04472800      11.92313000       0.03307506      -0.00245720       0.00658310       1.71284350       1.46570534      -0.23701778       1.67976844       1.46816254      -0.24360088
H       14.48810600      12.63441400      11.86187300      -0.02091558      -0.01321294      -0.00973097      -1.08424981       0.03711794      -0.17106620      -1.06333423       0.05033088      -0.16133523
H       13.74616000      14.00625300      11.70498000      -0.00740397      -0.00996470      -0.00471233      -0.57431173      -1.57856392       0.39074780      -0.56690776      -1.56859922       0.39546013
O       14.13685700      12.60673400      14.78772500      -0.01981868      -0.00037416      -0.00983215      -0.88900156      -1.31844648       0.56074988      -0.86918288      -1.31807232       0.57058203
H       14.75668400      13.25257000      15.07319800       0.00539234      -0.00197221      -0.00070939       0.60165027       0.91240518      -0.09196523       0.59625793       0.91437739      -0.09125584
H       13.93148500      12.66143000      13.85393300       0.01669547       0.00767573       0.01272424       0.31848010       0.51686659      -0.54758511       0.30178463       0.50919086      -0.56030935
27
Properties=species:S:1:pos:R:3:REF_forces:R:3:DFT_forces:R:3:FOUNDATION_forces:R:3 REF_energy=-0.015431874275236623 charge=0 spin=1 external_field="0.0 0.0 0.0" config_type=ORCA_DFT source_file=C_DFTprod_cutcluster_0071.out orca_step=0 DFT_energy=-18720.243947499275 FOUNDATION_energy=-18720.228515625 pbc="F F F"
O        9.20788800      15.08401500      11.36234200       0.00443220       0.00608455      -0.02930826       1.36389983      -0.26055757      -0.20057023       1.35946763      -0.26664212      -0.17126197
H        9.92552600      14.56527700      10.89197200       0.02040349      -0.00382744      -0.00133074      -1.11253478       0.47684146       0.47137087      -1.13293827       0.48066890       0.47270161
H        8.35717700      14.79182700      11.03911800      -0.00844914       0.00284019       0.01767157      -0.07475622      -0.23305139      -0.28090106      -0.06630708      -0.23589158      -0.29857263
O       13.55221900      14.93385600      12.47504000      -0.00700294      -0.01139370       0.02555026       2.08368839      -1.94673101      -1.63013290       2.09069133      -1.93533731      -1.65568316
H       13.47442000      14.06095400      12.88166000       0.01097370      -0.01387519      -0.01487583      -0.21400332       0.48687148       0.25167343      -0.22497702       0.50074667       0.26654926
H       12.91730200      15.51787500      12.80691700      -0.00503914       0.01899615      -0.00647513      -1.95576541       1.34174731       1.22032710      -1.95072627       1.32275116       1.22680223
O       11.32243900      13.40127200      14.28323800       0.01950219       0.01207317       0.03048299      -0.35488811      -2.45369469      -2.07307817      -0.37439030      -2.46576786      -2.10356116
H       11.14264400      12.76057200      14.95799000      -0.01268153      -0.00083625       0.00296676      -0.04676549      -0.46909678       0.68620902      -0.03408396      -0.46826053       0.68324226
H       11.51748100      14.19648200      14.68512500       0.00374420      -0.01222703      -0.00458775       0.49423759       2.84261063       1.32908287       0.49049339       2.85483766       1.33367062
O        8.21547500      11.72384400      10.14637600      -0.02251741       0.00041972       0.00810848      -0.11504942       0.00771691       0.36884056      -0.09253201       0.00729719       0.36073208
H        8.53944400      11.71736400      11.06897500       0.01430650       0.00578869       0.01614511       0.14019450      -0.02165661      -0.26085114       0.12588800      -0.02744530      -0.27699625
H        7.40862500      11.19728800      10.18098400       0.01050422      -0.00265819      -0.00808985       0.13354995       0.02047272      -0.10216480       0.12304573       0.02313091      -0.09407495
O       10.29274700       9.04224400      12.26495000      -0.00527712      -0.01687109       0.00967911      -0.07931083      -0.12905648      -0.31226241      -0.07403371      -0.11218539      -0.32194152
H       10.80807700       9.91101200      12.27374200      -0.00367452       0.01423709      -0.00570404      -0.88721932      -1.69989331      -1.07381093      -0.88354480      -1.71413040      -1.06810689
H       10.15048900       8.62207000      11.37302000       0.00124570      -0.00714203      -0.00628564       0.68626811       1.40664545       1.39270606       0.68502241       1.41378748       1.39899170
O       11.75522300      11.15587700      11.57604600       0.01597009      -0.01169663       0.00822158       1.01684819       0.65261782       1.23426886       1.00087810       0.66431445       1.22604728
H       11.34799800      11.47147700      10.78613600      -0.01983843       0.00580481       0.02206705      -0.65387277       0.25263667      -1.06230797      -0.63403434       0.24683186      -1.08437502
H       12.00000000      12.00000000      12.00000000       0.01190808       0.01824806      -0.01187943      -0.11049404      -0.60451510      -0.11856391      -0.12240212      -0.62276316      -0.10668448
O       11.21169200      16.23385100      13.26598100       0.01320988       0.01002449      -0.01514922       1.29799479       0.64267284       1.21981515       1.28478491       0.63264835       1.23496437
H       10.62847100      15.77115700      12.68276900      -0.00048873       0.00155195       0.00124237      -1.30086944      -0.02108325      -0.70863131      -1.30038071      -0.02263520      -0.70987368
H       10.91251800      17.13448900      13.46445600      -0.00889142      -0.00935825       0.00293350      -0.20180400      -0.64407893      -0.45983839      -0.19291258      -0.63472068      -0.46277189
O       11.60957800      13.82425300      10.44798800      -0.03248570      -0.01392913       0.01373210       2.31782916       1.48121619      -0.37100348       2.35031486       1.49514532      -0.38473558
H       11.87328800      13.98031500       9.51200200       0.00663029       0.01856598       0.00051920      -0.65958227      -0.39192835       0.63764088      -0.66621256      -0.41049433       0.63712168
H       12.40787700      14.29398600      10.88671000       0.00968005       0.01172742      -0.01851990      -1.58510934      -0.86767915      -0.17264085      -1.59478939      -0.87940657      -0.15412095
O        9.11491900      12.31222400      12.77621800       0.00858102      -0.02485753      -0.03730236       0.77239010      -0.77471293       0.20019768       0.76380908      -0.74985540       0.23750004
H        8.47654700      13.00968800      12.77337100       0.01895136       0.00587021       0.01866764      -0.38398251       0.85689794       0.14545256      -0.40293387       0.85102773       0.12678492
H        9.92760500      12.68214900      13.17490500      -0.04369676      -0.00355984      -0.01847985      -0.57089329       0.04878823      -0.33082762      -0.52719653       0.05234807      -0.31234777
27
Properties=species:S:1:pos:R:3:REF_forces:R:3:DFT_forces:R:3:FOUNDATION_forces:R:3 REF_energy=-0.0002704042744881008 charge=0 spin=1 external_field="0.0 0.0 0.0" config_type=ORCA_DFT source_file=C_DFTprod_cutcluster_0072.out orca_step=0 DFT_energy=-18719.838161029274 FOUNDATION_energy=-18719.837890625 pbc="F F F"
O        8.39354400      12.29601300      13.67413100       0.00677495      -0.00831782       0.00956556      -0.33933885       1.37006343      -1.18054381      -0.34611380       1.37838125      -1.19010937
H        8.27747900      12.94537300      12.93620600      -0.00678747      -0.01455313      -0.01949430       0.26909358      -0.99568862       0.85987693       0.27588105      -0.98113549       0.87937123
H        7.68534300      12.55147500      14.26965700       0.00186997       0.01570403       0.01092296      -0.09686868      -0.19988400       0.40944230      -0.09873865      -0.21558803       0.39851934
O       13.32103000       9.18039100      15.60077300      -0.03045680      -0.00766635      -0.02798241       1.05732856       0.28726470       1.48708052       1.08778536       0.29493105       1.51506293
H       12.83927900       9.39045400      14.80794300       0.00722175       0.00186742       0.01060668      -0.52470548       0.25607855      -0.70805034      -0.53192723       0.25421113      -0.71865702
H       13.71220000       9.98366100      15.99885500       0.01066291       0.01378388       0.00420079      -0.47322402      -0.72846799      -0.57860979      -0.48388693      -0.74225187      -0.58281058
O       10.68605700      10.24109600       9.84601900      -0.02080607       0.00923622      -0.00559660      -0.13023662      -0.30798018       0.45813940      -0.10943055      -0.31721640       0.46373600
H       10.27632200      10.51012600       9.02371700       0.01437073      -0.00677725      -0.01655304       0.01955766       0.10591835      -0.07655213       0.00518693       0.11269560      -0.05999909
H       11.01215400      11.05748600      10.31408600       0.00876732      -0.03240397      -0.00735903      -0.28211864      -0.39147224      -0.56721831      -0.29088596      -0.35906827      -0.55985928
O       11.57373700      12.26834200      11.09335200      -0.01206700       0.03487210       0.03526601       1.42351611      -0.16172358       2.83570537       1.43558311      -0.19659568       2.80043936
H       12.00000000      12.00000000      12.00000000       0.00843083      -0.00597403      -0.00126107      -1.10049785       0.88016375      -2.58431728      -1.10892868       0.88613778      -2.58305621
H       11.14492500      13.13212900      11.27878200       0.00291575       0.00439231       0.02436248       0.22848506      -0.55509926       0.03865479       0.22556931      -0.55949157       0.01429231
O        9.23675400       9.91733900      12.79363000      -0.00945877       0.01505685       0.02419627      -0.60307245       0.87052983       0.36168030      -0.59361368       0.85547298       0.33748403
H        9.39830000       9.84620300      11.83975700      -0.00264420       0.00920830      -0.00614804      -0.39791660       0.53747568      -0.02872452      -0.39527240       0.52826738      -0.02257648
H        8.80321800      10.80882300      13.06486200       0.01847529      -0.01493401      -0.00869967       1.08434140      -1.82181663      -0.84951080       1.06586611      -1.80688262      -0.84081113
O       10.46485400      14.53656000      11.89095900       0.01681164      -0.02895966      -0.01953711      -0.66452470      -0.88963976       0.57460890      -0.68133634      -0.86068010       0.59414601
H        9.50562900      14.55746200      12.00630100      -0.00351606       0.00147028       0.00093682       0.35108586       0.38044287      -0.26553677       0.35460192       0.37897259      -0.26647359
H       10.75703700      15.29335700      11.41622500      -0.00579860       0.01017972       0.00681282       0.06567961       1.14604279      -0.71223240       0.07147821       1.13586307      -0.71904522
O       12.61610900      12.28222300      14.08812000      -0.00463005       0.00710427      -0.00332310       0.49189336      -2.20661176       1.10675237       0.49652341      -2.21371603       1.11007547
H       12.30404900      11.34846400      13.88958900       0.00263727      -0.00025252       0.00113349       0.08683855       1.08055421       0.04987869       0.08420128       1.08080673       0.04874520
H       13.13606400      12.08162300      14.91841400      -0.00211291      -0.01452844      -0.01646739      -0.72170953       0.79536326      -1.29952079      -0.71959662       0.80989170      -1.28305340
O       11.05750400      14.60321800      14.58465600      -0.02084765      -0.02516160      -0.03193883       1.08967057      -1.84861169       1.64494081       1.11051822      -1.82345009       1.67687964
H       10.76944300      15.08474400      13.84964300       0.01684027       0.02892409       0.01755177      -0.41318418       0.85077034      -1.60298694      -0.43002445       0.82184625      -1.62053871
H       11.51818100      13.79275700      14.23254200      -0.00138031       0.00315101       0.01000026      -0.60200755       1.03249926       0.47632739      -0.60062724       1.02934825       0.46632713
O       11.79825000       9.37183400      13.31206100       0.00974005       0.02140391       0.02804891      -1.44543487       0.44987917      -0.54753693      -1.45517492       0.42847526      -0.57558584
H       10.79340000       9.44598700      13.07929700      -0.00428537      -0.01799220       0.00317125       1.50743481       0.15978631       0.80341344       1.51172018       0.17777851       0.80024219
H       12.22116300       9.09067600      12.49694300      -0.00072760       0.00116606      -0.02241597       0.11991472      -0.09583680      -0.10516049       0.12064232      -0.09700286      -0.08274452
27
Properties=species:S:1:pos:R:3:REF_forces:R:3:DFT_forces:R:3:FOUNDATION_forces:R:3 REF_energy=0.009266934412153205 charge=0 spin=1 external_field="0.0 0.0 0.0" config_type=ORCA_DFT source_file=C_DFTprod_cutcluster_0073.out orca_step=0 DFT_energy=-18719.879404940588 FOUNDATION_energy=-18719.888671875 pbc="F F F"
O       12.00000000      12.00000000      12.00000000      -0.00148463      -0.02097268       0.02871569       0.75913894       1.18082874       0.94950302       0.76062357       1.20180142       0.92078733
H       12.67068100      12.06287700      12.72439900      -0.01386691       0.00170700      -0.01032761       0.04401307      -0.86942132      -0.48680818       0.05787998      -0.87112832      -0.47648057
H       11.62190400      12.89174100      12.21575700      -0.00040397       0.01300808      -0.00340549      -0.32801643      -0.18903420      -1.06633035      -0.32761246      -0.20204228      -1.06292486
O       12.97528100      12.41129300       9.30722300       0.01205885      -0.00217202       0.01382271      -1.49309957       0.13839591       0.88151888      -1.50515842       0.14056793       0.86769617
H       13.04229300      11.98982800      10.18139900       0.00216625       0.00493685      -0.01071687      -0.17252407       0.20206111       0.14747638      -0.17469032       0.19712426       0.15819325
H       13.74282900      12.19716700       8.83023300      -0.00530939       0.01088198      -0.00468002       1.62241275      -0.44550068      -0.99055747       1.62772214      -0.45638266      -0.98587745
O       12.18648700       9.54872800      13.94624000      -0.00173262       0.02917107      -0.00653177       0.00140655       0.26080661      -0.18675595       0.00313917       0.23163554      -0.18022418
H       12.03162300       9.61270300      12.96694000       0.00038890      -0.00376623       0.02824965       0.13405568      -0.17065323       1.25080445       0.13366678      -0.16688700       1.22255480
H       11.76918700      10.30096200      14.38692700       0.00858554      -0.02668460       0.00189251      -0.01731144      -0.33591481      -0.40600288      -0.02589698      -0.30923021      -0.40789539
O        9.62882100      11.04358400      12.86161000       0.02705391      -0.01977807      -0.03389692       0.09924706      -0.44079181      -0.79070854       0.07219315      -0.42101374      -0.75681162
H        9.12790400      10.41942500      12.28068400      -0.01822196       0.01726827       0.01978625       0.96906073       0.88288835       0.67084349       0.98728269       0.86562008       0.65105724
H       10.54401800      11.19501500      12.48032600      -0.02601694       0.01474263      -0.00829464      -1.36622976      -0.40188531       0.16013490      -1.34021282      -0.41662794       0.16842954
O       10.78783800      10.58210600       9.43165300      -0.00537053      -0.00512870      -0.02037227      -0.25758198      -1.03446086      -0.64571667      -0.25221145      -1.02933216      -0.62534440
H       11.00753800      10.34364900       8.52250200       0.00256895       0.00859288       0.01615343      -0.31930111      -0.65701785       0.00739969      -0.32187006      -0.66561073      -0.00875374
H       11.16079400      11.44660100       9.40024800      -0.00614441      -0.01844869       0.00955633       0.42048215       1.45663752       0.66323308       0.42662656       1.47508621       0.65367675
O       10.88705700      14.51328500      12.58931700       0.01108588       0.00733453      -0.02517706       0.40196146      -0.02163460      -0.54101866       0.39087558      -0.02896913      -0.51584160
H       10.49231100      14.27247400      13.42044300      -0.01806966      -0.00270013       0.01816848      -0.31662140       0.17971874       0.62994084      -0.29855174       0.18241887       0.61177236
H       11.56204400      15.19392400      12.72894100       0.00800261      -0.00064223      -0.00456831      -0.22322062      -0.25719755      -0.02155289      -0.23122323      -0.25655532      -0.01698458
O       12.35343200       8.95829800      11.41060900       0.01342718       0.00670153      -0.03907445       1.69989542       0.25883174      -0.33844873       1.68646824       0.25213021      -0.29937428
H       11.66243400       9.28431900      10.85636600      -0.00072790       0.00743255       0.02965344      -1.27647615       0.39172503      -0.86482321      -1.27574825       0.38429248      -0.89447665
H       13.10654300       9.48611600      11.06254300       0.00209238       0.00233150      -0.00860975      -0.49544267      -0.68009340       0.57204129      -0.49753505      -0.68242490       0.58065104
O       13.39453500      12.52669100      14.32200600      -0.00264183      -0.02710415       0.00095480       1.65248093      -0.88000167      -0.90712465       1.65512276      -0.85289752      -0.90807945
H       14.22503100      12.94996700      14.58857400      -0.00001307       0.01733624       0.00252048      -0.67637260       0.01893150       0.07224158      -0.67635953       0.00159526       0.06972110
H       12.64950700      12.93113400      14.70973800       0.00703386       0.00103607       0.00412289      -0.92922791       0.99982496       1.03026024      -0.93626177       0.99878889       1.02613735
O       12.94722100      14.88531900      10.41692900       0.01538090      -0.00515481      -0.00995769      -0.14018375      -1.82771762      -0.95323755      -0.15556465      -1.82256281      -0.94327986
H       12.83766100      15.53574700       9.73332500      -0.00951892       0.00671858       0.00146337      -0.06134725       0.81762958      -0.25565432      -0.05182833       0.81091100      -0.25711769
H       12.85584900      14.03218600       9.86005900      -0.00032254      -0.01664742       0.01055271       0.26880191       1.42304508       1.41934223       0.26912445       1.43969250       1.40878952
27
Properties=species:S:1:pos:R:3:REF_forces:R:3:DFT_forces:R:3:FOUNDATION_forces:R:3 REF_energy=-0.01010023417256889 charge=0 spin=1 external_field="0.0 0.0 0.0" config_type=ORCA_DFT source_file=C_DFTprod_cutcluster_0074.out orca_step=0 DFT_energy=-18719.793303359173 FOUNDATION_energy=-18719.783203125 pbc="F F F"
O       10.39795100      13.48634200       8.51022100      -0.00655165      -0.00133347       0.00198531       0.64182607      -0.21907806       1.22600806       0.64837772      -0.21774459       1.22402275
H       10.99853300      13.94079100       7.92157400      -0.00007653       0.00475204      -0.00945718       0.23198711       0.08774410      -0.38271804       0.23206364       0.08299206      -0.37326086
H       10.92355000      13.35570200       9.33791200      -0.00601844       0.00501079       0.00536223      -0.52420704      -0.09775469      -0.66566257      -0.51818860      -0.10276548      -0.67102480
O       11.79203400      13.85574400      11.60338000       0.01413323       0.01942985      -0.00686106      -0.02541911       0.30625363      -0.16855264      -0.03955234       0.28682378      -0.16169158
H       12.26823400      14.63644000      11.26505100       0.00956955      -0.00898311       0.00309363      -0.19990483      -0.07821039       0.20115258      -0.20947438      -0.06922728       0.19805895
H       11.09473200      14.23346400      12.16277800      -0.02282266      -0.00885312      -0.00165688       0.13878075      -0.27602301      -0.14392132       0.16160341      -0.26716989      -0.14226444
O        8.27124100      12.25470600      11.93035800       0.00150215       0.01030853      -0.00062482       0.04004247      -1.37165973      -0.84047286       0.03854032      -1.38196826      -0.83984804
H        8.92268400      12.45628600      12.57705300       0.00634261       0.00898563       0.00817258       1.07203337       0.09331203       1.33128245       1.06569076       0.08432640       1.32310987
H        7.78171600      13.04289600      11.83584400       0.00001657      -0.00200476      -0.00312322      -0.94136167       1.37995015      -0.35354018      -0.94137824       1.38195491      -0.35041696
O        8.68402000      15.46213800       9.46527900       0.04100669      -0.01509448      -0.01705113       2.34802831      -2.02452489      -0.66312376       2.30702162      -2.00943041      -0.64607263
H        9.50303800      14.81320600       9.33259900      -0.01440209       0.01018739       0.02650528      -2.34201568       1.89441204       0.54966729      -2.32761359       1.88422465       0.52316201
H        8.17940700      15.11994600       8.71537300      -0.00768741      -0.00015655      -0.00515307      -0.35391675       0.29801181       0.15922504      -0.34622934       0.29816836       0.16437811
O       10.29179900      12.28478700      14.47729500       0.01521753       0.02284019       0.00769000       1.52483820      -0.96213002      -0.99489029       1.50962067      -0.98497021      -1.00258029
H       10.95986900      12.76184800      15.01414800      -0.00565971       0.00466906       0.01112148      -0.77302588      -0.36959631      -0.37539965      -0.76736617      -0.37426537      -0.38652113
H       10.82803500      11.63640600      13.87380800       0.00407929      -0.01587642      -0.02028956      -1.16835719       1.54631149       1.33217941      -1.17243648       1.56218791       1.35246897
O        9.28406100       9.81885400      11.05983700       0.00401122      -0.00178098       0.00123031       0.60439754       0.52896929       0.83387644       0.60038632       0.53075027       0.83264613
H        9.06535900      10.77138900      10.98266400       0.00426216      -0.01366617      -0.00685758      -0.26790424      -0.73612376      -0.15279949      -0.27216640      -0.72245759      -0.14594191
H        9.11174200       9.34430400      10.25845800      -0.00495506       0.00217398      -0.00301437      -0.28155232       0.09362035      -0.69805400      -0.27659726       0.09144637      -0.69503963
O       11.51143500      14.49810900      16.07835600      -0.00958909       0.00163448      -0.00329748      -0.73156740       0.65864140       0.70244261      -0.72197831       0.65700692       0.70574009
H       12.26420100      14.62642700      15.50553300      -0.00018289      -0.00791951      -0.00591688       0.27106351       0.46254391      -0.09983569       0.27124640       0.47046342      -0.09391881
H       11.18666500      15.37498500      16.39582000       0.00326692       0.00106785       0.00661405       0.61905109      -1.08554688      -0.60680322       0.61578417      -1.08661473      -0.61341727
O       11.70452900      11.19273400      12.48564800      -0.00201480      -0.02010061       0.01386882       0.72175695       0.41954647      -0.76708113       0.72377175       0.43964708      -0.78094995
H       12.00000000      12.00000000      12.00000000      -0.01472495      -0.00115143       0.00296639      -0.38675992      -0.60714446       0.52283906      -0.37203497      -0.60599303       0.51987267
H       11.60642300      10.49801000      11.82319600       0.00717177       0.00278152      -0.00433127      -0.30368356      -0.01669860       0.13510310      -0.31085533      -0.01948012       0.13943437
O       12.26862000      16.38186900      10.49826800      -0.01543171       0.00176722       0.00626877       0.58198827       1.11721748       2.54309180       0.59741998       1.11545026       2.53682303
H       12.29254400      16.15717600       9.59437500      -0.00737813       0.00306616      -0.00438361       0.33646795       0.23886625      -1.70732252       0.34384608       0.23580009      -1.70293891
H       12.84204100      17.16134300      10.72662100       0.00691538      -0.00175341      -0.00286170      -0.83258600      -1.28090950      -0.91669049      -0.83950138      -1.27915609      -0.91382879
27
Properties=species:S:1:pos:R:3:REF_forces:R:3:DFT_forces:R:3:FOUNDATION_forces:R:3 REF_energy=0.024612964924017433 charge=0 spin=1 external_field="0.0 0.0 0.0" config_type=ORCA_DFT source_file=C_DFTprod_cutcluster_0075.out orca_step=0 DFT_energy=-18719.485152660076 FOUNDATION_energy=-18719.509765625 pbc="F F F"
O       10.43959500      14.21787500      10.02517500      -0.02657993       0.01074710       0.02655261       0.18307655       0.04810473       1.18113285       0.20965648       0.03735763       1.15458024
H        9.94566400      14.51872200      10.85581000       0.00567633       0.00642061      -0.02565490       0.68354207      -0.50301683      -1.24903332       0.67786574      -0.50943744      -1.22337842
H       11.36128800      14.12424900      10.35761500       0.01113760      -0.00977595       0.00468083      -0.93690163       0.19827974      -0.72193996      -0.94803923       0.20805569      -0.72662079
O       13.16493800      14.41118800       9.76593200      -0.02846919       0.01222141       0.01674325      -0.43171273      -0.41727100       0.30210022      -0.40324354      -0.42949241       0.28535697
H       13.92754400      14.05748500      10.21420300       0.01728437      -0.01208812      -0.00499535       0.51712761       0.09876246       0.01995233       0.49984324       0.11085058       0.02494768
H       13.42832100      15.10120700       9.16525700       0.00848887       0.00156642      -0.00566928       0.27880315       0.27364490      -0.21194896       0.27031428       0.27207848      -0.20627968
O        9.70507600      15.00951000      12.36784500       0.01487926      -0.00318501       0.00911583       0.33814678      -0.64906183       2.02026333       0.32326752      -0.64587682       2.01114750
H       10.54521500      15.43610500      12.57226000       0.01292726       0.00316817      -0.01749439      -0.10583973       0.41542998      -0.36111949      -0.11876699       0.41226181      -0.34362510
H        9.72940100      14.26896400      13.10369300      -0.00990719       0.00780376      -0.02269168      -0.64312762       0.95810845      -1.52034540      -0.63322043       0.95030469      -1.49765372
O       13.71485600       9.99499800      14.11298700       0.00574012       0.01155958       0.00461519       0.64375116      -1.57019236      -2.01248991       0.63801104      -1.58175194      -2.01710510
H       13.12758000      10.16451500      13.34169100       0.00374764      -0.00898201      -0.00484077      -0.24791700       0.61953836       0.60671689      -0.25166464       0.62852037       0.61155766
H       14.23176500       9.26754700      13.65034500      -0.00402704      -0.00321848      -0.00019455      -0.47225219       1.12823527       1.41340339      -0.46822515       1.13145375       1.41359794
O        9.77293800      13.18229300      14.14073200      -0.00886223      -0.02477209       0.01736993       0.61756602      -1.74636452       0.36883408       0.62642825      -1.72159243       0.35146415
H        9.67745800      12.21627500      13.90360600       0.01357126       0.00264717       0.00522864       0.18838587       1.60293973       0.25932241       0.17481461       1.60029256       0.25409377
H       10.68017900      13.24060400      14.53654300      -0.02232554       0.00567900      -0.00521830      -0.64443960      -0.47894956      -0.00058092      -0.62211406      -0.48462856       0.00463738
O       11.91993800      10.95229100      12.01779800       0.03319494      -0.00429943       0.01266618       0.22397755       3.48199246      -0.30359398       0.19078261       3.48629189      -0.31626016
H       11.90401700      10.76642000      11.06496800      -0.00908890       0.02425191       0.00608715       0.14523119      -0.21864858       0.13028007       0.15432009      -0.24290049       0.12419292
H       12.00000000      12.00000000      12.00000000      -0.02146250      -0.00380287      -0.01851499      -0.31660479      -3.24805507       0.25042588      -0.29514229      -3.24425220       0.26894087
O       12.29290500      12.77904000      15.33666600      -0.00409877       0.00023671      -0.01414896       1.59676898       1.19926103      -1.12423397       1.60086775       1.19902432      -1.11008501
H       12.63620200      11.94431200      15.66605100       0.01396072       0.00206118       0.00876614       0.01448267      -0.21689298      -0.09699379       0.00052195      -0.21895416      -0.10575993
H       13.05439100      13.18380600      14.78990100       0.00285954      -0.01779094       0.00728674      -1.60070210      -0.94335016       1.00760527      -1.60356164      -0.92555922       1.00031853
O       13.84004000      14.22257600      13.33482800       0.00732693       0.00274176      -0.00175760      -4.41961256       0.74597175       0.15852220      -4.42693949       0.74322999       0.16027980
H       14.74221000      14.16425700      13.33886600      -0.01571122      -0.00859459       0.01600855       3.62813696       0.22834457       0.12732032       3.64384818       0.23693916       0.11131177
H       13.52776000      15.13936100      13.51469200       0.00219241       0.01178196      -0.01385028       0.83760891      -0.99047658      -0.24832349       0.83541650      -1.00225854      -0.23447321
O       13.26796800      10.17295600       9.44943600       0.00902304      -0.01820621      -0.00921188       1.35398278      -0.34703082      -1.37824474       1.34495974      -0.32882461      -1.36903286
H       13.10252900       9.62974100       8.63318100      -0.00544144       0.01260702       0.00219975       0.20342261       0.83421819       1.19353400       0.20886405       0.82161117       1.19133425
H       14.21342200      10.47915200       9.34339700      -0.00603624      -0.00077837       0.00692253      -1.63490101      -0.50352138       0.18943468      -1.62886477      -0.50274301       0.18251215
27
Properties=species:S:1:pos:R:3:REF_forces:R:3:DFT_forces:R:3:FOUNDATION_forces:R:3 REF_energy=0.011045015209674602 charge=0 spin=1 external_field="0.0 0.0 0.0" config_type=ORCA_DFT source_file=C_DFTprod_cutcluster_0076.out orca_step=0 DFT_energy=-18720.06317373479 FOUNDATION_energy=-18720.07421875 pbc="F F F"
O       10.79530800      14.55923000      12.28415800      -0.01371923       0.00001172      -0.00260684      -0.38965046       0.11871355       0.04780036      -0.37593123       0.11870183       0.05040720
H       11.42490100      15.07830400      11.77907800       0.01345642      -0.00186826      -0.00396188       0.10391124      -0.18503886       0.02872534       0.09045482      -0.18317060       0.03268722
H       11.06255600      13.62926300      12.25069500       0.00803040      -0.00253828      -0.00137444       0.25069466      -0.00485851      -0.22977416       0.24266426      -0.00232023      -0.22839972
O       11.95465400       8.48434900      14.68758000      -0.00246508       0.00336806       0.03562223       1.11752277      -0.91104605       0.68357097       1.11998785      -0.91441411       0.64794874
H       11.44753900       9.24780000      14.98904500      -0.00221046       0.00080906      -0.01775821       0.47290016      -0.30117632       0.42383189       0.47511062      -0.30198538       0.44159010
H       12.61744200       8.16978700      15.38160700       0.00406344      -0.00453158      -0.01859836      -1.56003897       1.23708026      -1.23560743      -1.56410241       1.24161184      -1.21700907
O       14.81131500      12.62684200      11.99085800       0.03069196       0.01129924       0.00705143      -0.03697499       0.08360611      -0.94743816      -0.06766695       0.07230687      -0.95448959
H       14.94071900      13.38316600      11.34998300      -0.00546700      -0.00238505       0.00729192      -0.07835144      -1.70864478       0.85855985      -0.07288444      -1.70625973       0.85126793
H       14.90085800      11.74119600      11.51604300      -0.00891603       0.00886013      -0.00500630       0.09696942       1.75880470       0.06450076       0.10588545       1.74994457       0.06950706
O       12.75768000      12.30612600      15.06656800      -0.01367753       0.02798766      -0.00103631      -1.05450600      -1.06345838       0.67163179      -1.04082847      -1.09144604       0.67266810
H       12.01543500      11.80854700      15.49480200      -0.00972840      -0.00056215       0.00284414       0.92756811       0.87687264      -0.34118171       0.93729651       0.87743479      -0.34402585
H       12.55917300      12.18826900      14.13201800       0.00840297      -0.01323281       0.00301131      -0.06590540       0.23088889      -0.53025309      -0.07430837       0.24412170      -0.53326440
O        9.95823200      15.33270300      14.83225000       0.01159968       0.00404955       0.00496460       1.23690548      -1.17230116      -0.50269519       1.22530580      -1.17635071      -0.50765979
H       10.18882600      15.05614900      13.91139300       0.00160174       0.00170006       0.00373464      -0.00429194       0.22974835       0.72646021      -0.00589368       0.22804829       0.72272557
H        9.24248000      15.92195900      14.72581000      -0.01086653      -0.00639754      -0.00019488      -1.23918188       1.00513131      -0.10300581      -1.22831535       1.01152885      -0.10281093
O       12.00000000      12.00000000      12.00000000       0.01639788      -0.01414274      -0.00869199       2.04493420       0.50652541      -0.13717561       2.02853632       0.52066815      -0.12848362
H       12.00782600      11.07293000      11.77466200      -0.01485007      -0.00042368      -0.00165543      -0.70913499      -0.83706219      -0.14995348      -0.69428492      -0.83663851      -0.14829805
H       12.97732000      12.17566700      11.80311900      -0.02321122       0.00389656       0.00608746      -1.30572126       0.55418333       0.62541220      -1.28251004       0.55028677       0.61932474
O       14.66217200      10.68191800      10.14590800       0.02077476      -0.01261663       0.00264023       0.69924776      -0.96822631      -0.43228619       0.67847300      -0.95560968      -0.43492642
H       15.39600700      10.07907200       9.94216600      -0.00623112       0.00681476      -0.00094505       0.08935309       0.54651080       0.04728295       0.09558421       0.53969604       0.04822800
H       13.91961700      10.06061800      10.11985500      -0.00846776      -0.00029912       0.00269632      -0.55147472       0.28228889       0.31431733      -0.54300696       0.28258801       0.31162101
O       14.88473900      10.46331300      15.34980000       0.00139058      -0.00894868      -0.01589084       0.40806994      -0.53231620      -0.20296470       0.40667936      -0.52336752      -0.18707386
H       15.41878900      10.39481900      14.54442800      -0.00086150       0.00811076       0.00390324      -0.33051271       0.17906825       0.33919939      -0.32965121       0.17095749       0.33529615
H       14.11879900      11.01573900      15.13620500       0.01198087      -0.00471194       0.00223304       0.07212063       0.34824957      -0.02826368       0.06013976       0.35296151      -0.03049672
O       12.27661100       9.45839400      10.72598200      -0.00203008      -0.01220092      -0.00782851       0.64293360      -0.21921654       0.64759275       0.64496368      -0.20701562       0.65542126
H       11.72755800       9.40728600       9.94119700      -0.00448410       0.00393135      -0.00134446      -0.25249140      -0.62316197       0.11904039      -0.24800730      -0.62709332       0.12038485
H       12.39182300       8.61006100      11.20453700      -0.00120443       0.00402072       0.00481294      -0.58489495       0.56883517      -0.75732698      -0.58369052       0.56481445      -0.76213992
27
Properties=species:S:1:pos:R:3:REF_forces:R:3:DFT_forces:R:3:FOUNDATION_forces:R:3 REF_energy=0.01786652609007433 charge=0 spin=1 external_field="0.0 0.0 0.0" config_type=ORCA_DFT source_file=C_DFTprod_cutcluster_0077.out orca_step=0 DFT_energy=-18720.35908659891 FOUNDATION_energy=-18720.376953125 pbc="F F F"
O       14.80903400      11.19932500       9.26429400       0.00361565      -0.00461824      -0.00137745      -0.70853212      -0.29045410      -0.40763419      -0.71214777      -0.28583586      -0.40625674
H       14.22640400      10.59356500       8.74958800      -0.00137636       0.00510622       0.00515465       0.54663524       0.67390568       0.54060451       0.54801160       0.66879946       0.53544986
H       14.42730600      12.09130000       9.16698500      -0.00094146      -0.00496462      -0.00481879       0.00995742      -0.52266911       0.08095736       0.01089888      -0.51770449       0.08577615
O       11.20452100       8.69596100       9.15474600      -0.00977589       0.00032087       0.01324666      -0.89563234       1.22834201      -0.92851227      -0.88585645       1.22802114      -0.94175893
H       11.49833200       8.26023400       9.93195900       0.00557010       0.00379838      -0.00239051       0.57239430      -0.63214962       1.17746162       0.56682420      -0.63594800       1.17985213
H       10.63738800       9.42895200       9.50037100      -0.00109761      -0.00188770      -0.00529099       0.54068298      -0.59105696      -0.47133822       0.54178059      -0.58916926      -0.46604723
O       12.02467900       8.22533500      12.00416400      -0.00531289      -0.00250749      -0.00685348      -1.30176279      -1.18615786       1.04092143      -1.29644990      -1.18365037       1.04777491
H       12.76200500       8.52825400      12.54928400      -0.00301278      -0.00658172       0.01181886      -0.07853867      -0.20812809       0.03934683      -0.07552589      -0.20154637       0.02752797
H       11.47607600       7.58068900      12.55889100       0.00711981       0.00633376      -0.00525445       1.39997724       1.44859259      -1.03920192       1.39285743       1.44225883      -1.03394747
O       14.73299800      10.67206200      12.24368700       0.01377593       0.02431576      -0.01185221       0.45857207       0.71088462      -0.77216209       0.44479614       0.68656886      -0.76030988
H       14.58412400      10.83931500      11.28444400      -0.00998049      -0.00117277      -0.01911645       0.18809688      -0.35497080       0.33054264       0.19807737      -0.35379803       0.34965909
H       15.57541200      11.15603000      12.38362100      -0.00065351      -0.01814038       0.02197880      -0.79459060      -0.48137045       0.21817118      -0.79393709      -0.46323007       0.19619238
O       13.67443200      13.61275200      10.41751800      -0.01289263      -0.01775066       0.00479113      -0.63217261       0.43217280      -0.80936236      -0.61927998       0.44992346      -0.81415349
H       14.49123400      14.05742700      10.61486500      -0.01583566       0.01505500       0.01650267       0.75142871       0.10676373       0.50863706       0.76726437       0.09170873       0.49213439
H       13.17479600      14.31748300       9.97072700       0.02401448       0.00390699      -0.01780341      -0.12925965      -0.37870476       0.20649498      -0.15327413      -0.38261175       0.22429839
O       11.23605600      14.70475000      12.68461400      -0.00065781      -0.00404918       0.01919534      -0.23706576      -0.61827040       0.80363347      -0.23640795      -0.61422122       0.78443813
H       11.06436800      15.01113100      13.60241000       0.00079672      -0.01140647      -0.02489656       0.03516524      -0.47482036      -0.97068721       0.03436852      -0.46341389      -0.94579065
H       11.10740000      13.72151400      12.68409900       0.00615722       0.01502408       0.01077948       0.20813200       1.10564150       0.19846738       0.20197478       1.09061742       0.18768790
O       12.00000000      12.00000000      12.00000000      -0.00505343      -0.00036467      -0.01905755       0.42121044      -0.29240022       0.15730946       0.42626387      -0.29203555       0.17636701
H       12.57811000      12.54005200      11.42825300      -0.00841880      -0.02728827       0.03564665      -0.01732183      -0.08403800       0.09971392      -0.00890303      -0.05674973       0.06406727
H       12.58427800      11.26647900      12.28363700       0.00254188       0.02986700      -0.01489724      -0.34296503       0.39778543      -0.16799070      -0.34550691       0.36791843      -0.15309346
O        9.77543700      10.72670200      10.50462300      -0.00806839      -0.00270534      -0.00617010      -0.03299132       1.06651187      -0.30195439      -0.02492293       1.06921721      -0.29578429
H       10.24358100      11.55612100      10.69679500      -0.00275177      -0.02256939       0.00495575      -0.15535985       0.03823200      -0.50643655      -0.15260808       0.06080139      -0.51139230
H       10.08395700      10.26701100      11.26864700       0.00853680       0.01396851      -0.00819791       0.12775854      -1.12769802       0.99315917       0.11922174      -1.14166653       1.00135708
O       13.82302100      13.34032200      14.16027700      -0.00919367       0.01000993      -0.01631638       0.47899141       0.83479540       0.69448474       0.48818508       0.82478547       0.71080112
H       13.48618600      14.24724100      14.24684100       0.00371535      -0.01276162       0.00749930       0.14591341      -0.49144342      -0.14372385       0.14219806      -0.47868180      -0.15122315
H       13.25470300      12.93121500      13.51956900       0.01917916       0.01106229       0.01272406      -0.55872328      -0.30929551      -0.57090203      -0.57790244      -0.32035780      -0.58362609
27
Properties=species:S:1:pos:R:3:REF_forces:R:3:DFT_forces:R:3:FOUNDATION_forces:R:3 REF_energy=-0.007981892424140824 charge=0 spin=1 external_field="0.0 0.0 0.0" config_type=ORCA_DFT source_file=C_DFTprod_cutcluster_0079.out orca_step=0 DFT_energy=-18719.455247517424 FOUNDATION_energy=-18719.447265625 pbc="F F F"
O       11.27338400      15.10797500      10.95304700       0.02403418      -0.00608431       0.01656104       0.22348689       1.94066681       1.98555745       0.19945271       1.94675112       1.96899641
H       11.21762600      14.92856400      11.95023900      -0.00052532       0.00458159      -0.02004776       0.24172876       0.17201694      -2.00858209       0.24225408       0.16743535      -1.98853433
H       11.48001400      16.09962100      10.92890200      -0.01166774       0.00766533      -0.00042156      -0.48390926      -2.14102060       0.01024760      -0.47224152      -2.14868593       0.01066916
O        9.19061900      10.35178200      10.68741200      -0.00362314      -0.01329424      -0.02063517      -1.21326269      -1.64580943      -0.69412879      -1.20963955      -1.63251519      -0.67349362
H        8.75063700       9.51865700      10.33045700       0.01054790      -0.00332856       0.01518825       0.93453755       1.48456860       0.82344655       0.92398965       1.48789716       0.80825830
H        8.96462700      11.01189400      10.02268300      -0.00156594       0.01099486       0.00078157       0.26139014       0.10926680       0.02408065       0.26295608       0.09827194       0.02329908
O       14.37901100      10.92155300      11.28740400      -0.00652164      -0.00679803      -0.02146888       0.72743327      -0.03259131       2.18675971       0.73395491      -0.02579328       2.20822859
H       14.93121600      10.87351900      12.13967200      -0.01069967      -0.00205531       0.00382212      -1.28860800      -0.00369421      -1.98221728      -1.27790833      -0.00163890      -1.98603940
H       13.44640500      10.98990300      11.61764800       0.01251102       0.00408932       0.00956653       0.83411128       0.24688969      -0.14350207       0.82160026       0.24280037      -0.15306860
O       11.60071000      10.78399200       9.04858500      -0.02276002      -0.00774488       0.00767302       0.10413611       0.44975838       0.64886128       0.12689613       0.45750326       0.64118826
H       11.29078600      11.71605600       9.01535500       0.00601722       0.01025132       0.00700591       0.62319041      -0.90032717       0.37645812       0.61717319      -0.91057849       0.36945221
H       12.03429800      10.65459000       9.92899600       0.01572537      -0.00182798       0.01012570      -0.56153334       0.59872374      -1.18875879      -0.57725871       0.60055172      -1.19888449
O       12.00000000      12.00000000      12.00000000       0.01081955      -0.01269256      -0.00842910       0.88309168       0.09877984      -0.64736073       0.87227213       0.11147240      -0.63893163
H       11.21570600      11.68097100      12.41322400       0.00112046      -0.02267179       0.00224165      -0.84901093      -0.41768885       0.71333442      -0.85013139      -0.39501706       0.71109277
H       12.26375200      12.69108800      12.62022000      -0.00365801       0.02933395      -0.00916718       0.19196603       0.38913238      -0.04338953       0.19562404       0.35979843      -0.03422235
O       11.63200200      13.88889600      14.08700700      -0.00445812      -0.00136824      -0.02006923      -1.11190717      -0.60178597       0.12460354      -1.10744905      -0.60041773       0.14467277
H       12.26982700      14.34380300      14.64230300      -0.00455851      -0.00073008       0.01038007      -0.17848764      -0.12350089       0.30949245      -0.17392913      -0.12277081       0.29911238
H       10.91661400      13.45217800      14.62225100       0.00602688      -0.00261024       0.01030367       1.28563930       0.79951426      -0.58110756       1.27961242       0.80212450      -0.59141123
O        9.61075700      11.41999000      13.28703300       0.00925484      -0.02848361      -0.01479536       0.20668843      -0.35863776      -1.14681607       0.19743359      -0.33015415      -1.13202071
H        9.65144700      11.00616700      12.35923800      -0.01654530       0.02321838       0.05096168      -0.99858070       0.22493863       1.90062923      -0.98203540       0.20172025       1.84966755
H        9.31986700      10.78184700      13.95538900      -0.00800381       0.00924812      -0.02444607       0.13149533      -0.02182671      -0.70402276       0.13949914      -0.03107483      -0.67957669
O       14.17652400      14.33445600      11.99800500       0.00039659       0.03015383      -0.00315959       0.60839782      -1.26827685      -1.96294326       0.60800123      -1.29843068      -1.95978367
H       14.35111900      13.44297200      11.57138600      -0.00241988      -0.02991228      -0.00175298      -0.31206741       0.86388255       1.13611936      -0.30964753       0.89379483       1.13787234
H       14.20899500      14.83748000      11.15634200      -0.00488063       0.00247139       0.00943246      -0.29084378       0.17084329       0.90754565      -0.28596315       0.16837190       0.89811319
O       10.63525200       8.14607100      12.08972300      -0.00611733      -0.00608109       0.00697752      -1.29712473       1.23608257       0.85128661      -1.29100740       1.24216366       0.84430909
H        9.98481400       8.36123000      12.83375600       0.00279782       0.00586030      -0.00439250       1.42959306      -0.34047934      -1.70782959       1.42679524      -0.34633964      -1.70343709
H       10.64200400       8.94235200      11.49973100       0.00875298       0.00781429      -0.01223615      -0.10155030      -0.92942548       0.81223592      -0.11030328      -0.93723977       0.82447207
27
Properties=species:S:1:pos:R:3:REF_forces:R:3:DFT_forces:R:3:FOUNDATION_forces:R:3 REF_energy=-0.006943071595742367 charge=0 spin=1 external_field="0.0 0.0 0.0" config_type=ORCA_DFT source_file=C_DFTprod_cutcluster_0080.out orca_step=0 DFT_energy=-18720.419052446596 FOUNDATION_energy=-18720.412109375 pbc="F F F"
O       11.00353400      10.34110400       9.72048700      -0.02013101      -0.02032784       0.00875371      -1.01914110       0.16163714       0.67526024      -0.99901009       0.18196498       0.66650653
H       11.60418200      10.86005700      10.29495100       0.01265471       0.00820178       0.01813425      -0.52913178      -0.10645422      -0.08338674      -0.54178649      -0.11465600      -0.10152099
H       10.09662500      10.44497800      10.11424400       0.00493908       0.00501790      -0.01185660       1.47459149       0.04913317      -0.52296381       1.46965241       0.04411527      -0.51110721
O       12.30618100      15.12111400      11.08667400       0.00708831       0.01202139       0.01473416       0.34830732       0.00547614      -0.35515191       0.34121901      -0.00654525      -0.36988607
H       13.07049200      15.46920600      10.60322800      -0.00262310      -0.00638682       0.00009851      -0.06761112      -0.05167080       0.42173181      -0.06498802      -0.04528398       0.42163330
H       11.74888000      14.82949200      10.35369700      -0.01163548      -0.00427426      -0.02448307      -0.35060933      -0.16962824      -0.08739664      -0.33897385      -0.16535398      -0.06291357
O       11.80145400      10.73478700       7.08738900      -0.03817597       0.03671613      -0.03285620       1.07709870      -0.07376187       0.12243178       1.11527467      -0.11047800       0.15528798
H       11.34396600      10.56959700       7.92592700       0.01722275      -0.00238994       0.00694231      -0.13476433       0.10270951       0.37814564      -0.15198708       0.10509945       0.37120333
H       11.18677900      10.54303300       6.39478400       0.01888425      -0.00507206       0.00215564      -0.85924958       0.00111956      -0.49269771      -0.87813383       0.00619162      -0.49485335
O       13.70192300       9.29952000       5.64543000      -0.00290455       0.00056219      -0.01283094      -0.99971600      -1.56682015      -0.44819525      -0.99681145      -1.56738234      -0.43536431
H       13.37088100       8.42960000       5.28617600       0.00303466       0.01106458       0.00853624       0.72782213       1.37372165       0.49378719       0.72478747       1.36265707       0.48525095
H       12.99570400       9.54711900       6.27506500       0.00759024      -0.01930983       0.00407599       0.48444647       0.16734900      -0.05982762       0.47685623       0.18665883      -0.06390361
O       12.65082500      13.41186100       6.36798900      -0.02211941       0.00675171      -0.00272793       1.09511494      -2.31803042       0.12454497       1.11723435      -2.32478213       0.12727290
H       13.61182200      13.28170300       6.18329900       0.01164246      -0.00438626       0.00143764      -0.89061868       0.73550294       0.06821713      -0.90226114       0.73988920       0.06677949
H       12.45076500      12.42786700       6.54333100      -0.00042602      -0.02254988       0.00438137      -0.32925406       1.62107645       0.06035233      -0.32882804       1.64362633       0.05597096
O       10.83999900      14.39784400       8.45346700       0.00615074       0.01558647       0.00336041      -0.71087835       1.17956242       0.26292535      -0.71702909       1.16397595       0.25956494
H       11.58893400      14.51661600       7.84789500       0.00860499      -0.00790915       0.00250585      -0.03452694      -0.10325371      -0.22680325      -0.04313193      -0.09534456      -0.22930910
H       10.22306800      15.16537300       8.32449400      -0.01207013      -0.00373919       0.00199213       0.97760718      -1.06191428       0.03871485       0.98967731      -1.05817509       0.03672272
O        9.68467000       6.69379200       9.05491900      -0.00729693       0.00063732       0.00068095       0.04628619       1.32084372       0.63117101       0.05358312       1.32020640       0.63049006
H        9.94019400       7.29199400       9.79731600       0.00977891      -0.00000846       0.00017922      -0.10931324      -0.84840631      -0.69844372      -0.11909215      -0.84839785      -0.69862294
H        9.31148600       7.33733500       8.43029900      -0.00322354      -0.00098196       0.00048093       0.10088459      -0.44684974       0.05116295       0.10410813      -0.44586778       0.05068202
O       12.00000000      12.00000000      12.00000000       0.00389590      -0.00024780       0.00680480      -0.35433481      -1.52415773      -0.24505340      -0.35823071      -1.52390993      -0.25185820
H       12.20550700      12.91672000      12.08577700       0.00126551      -0.00126538      -0.00595613       0.41682748       1.19098881       0.12553973       0.41556197       1.19225419       0.13149586
H       12.49224500      11.50052800      12.66243700      -0.00228962      -0.00397408       0.00474710      -0.03394006       0.36692992      -0.07249375      -0.03165044       0.37090400      -0.07724085
O        9.54715800      12.45262200       6.89296700       0.00091315       0.00168945      -0.00172306      -0.28489255      -0.16851212      -0.55546559      -0.28580570      -0.17020157      -0.55374253
H       10.04168200      12.97529700       7.53923500       0.00697772       0.00638944       0.00959407       0.06882134       0.13187364      -0.00401108       0.06184362       0.12548420      -0.01360515
H        9.90329000      12.71152300       6.02962300       0.00225243      -0.00181538      -0.00716111      -0.10982581       0.03153546       0.39790550      -0.11207824       0.03335084       0.40506661
27
Properties=species:S:1:pos:R:3:REF_forces:R:3:DFT_forces:R:3:FOUNDATION_forces:R:3 REF_energy=-0.005785729455965338 charge=0 spin=1 external_field="0.0 0.0 0.0" config_type=ORCA_DFT source_file=C_DFTprod_cutcluster_0081.out orca_step=0 DFT_energy=-18720.062426354456 FOUNDATION_energy=-18720.056640625 pbc="F F F"
O       12.62563500       6.41857300      12.43820000       0.00731886       0.00230521       0.00512223      -0.38783356      -0.78449506       0.54732923      -0.39515242      -0.78680027       0.54220700
H       11.67265300       6.55298900      12.40594300      -0.00313333      -0.00517760      -0.00145154      -0.25308805       0.65129365      -0.53468095      -0.24995472       0.65647125      -0.53322941
H       12.61393100       5.58183600      12.92935100      -0.00193584      -0.00318589      -0.00078435       0.60483432       0.19004712      -0.13810347       0.60677016       0.19323301      -0.13731912
O       11.69302300       9.97344400      10.00604600      -0.00708862       0.02123666      -0.00573003       0.57077430      -0.46093342      -1.19390475       0.57786292      -0.48217008      -1.18817472
H       12.62582500       9.97474800       9.68666800       0.00968295      -0.01592968       0.00078707      -0.80946952      -0.38171176       0.18308236      -0.81915247      -0.36578208       0.18229529
H       11.71939500      10.41592900      10.84454400       0.00267745      -0.00593918       0.00626381       0.10811119       0.80828769       0.92490568       0.10543374       0.81422687       0.91864187
O       14.12924100       8.99541800       8.75374300       0.01657545       0.00460253       0.00004992       1.33336484       1.62829564      -0.32413581       1.31678939       1.62369311      -0.32418573
H       15.00853900       9.47318200       8.73230600      -0.00925309      -0.00204800      -0.01117448      -1.50773722      -0.96283095       0.04904261      -1.49848413      -0.96078295       0.06021709
H       14.30435200       8.11419500       9.06628400      -0.00779615      -0.00361271       0.00565404       0.16159925      -0.52232165       0.30034909       0.16939540      -0.51870894       0.29469505
O       15.20655300      13.20910800       7.88208800       0.00648623       0.00708239       0.00554861       0.75756871      -1.07612605       1.67541744       0.75108248      -1.08320844       1.66986883
H       14.67298000      13.32953500       8.69061100      -0.00227351       0.00252550      -0.00805251       0.00841111       0.03758876      -0.67923419       0.01068462       0.03506326      -0.67118168
H       14.84962100      13.72146900       7.19093400      -0.00247472      -0.00796216       0.00120987      -0.78758269       0.94980908      -0.98982589      -0.78510797       0.95777124      -0.99103576
O       11.35350800      14.29305200       7.37925900       0.00597940       0.00972153      -0.00135408      -1.05321588      -0.75163661      -0.60588292      -1.05919528      -0.76135814      -0.60452884
H       10.74886300      13.79375200       6.78134900      -0.00107598      -0.00772634       0.00931767       0.31542090       0.32304895       1.05088666       0.31649688       0.33077529       1.04156899
H       12.01332800      14.54797400       6.74896800       0.00178743      -0.00373350       0.00631434       0.84063376       0.49721457      -0.41562271       0.83884633       0.50094807      -0.42193705
O       10.09073400       7.69727800      10.86668900      -0.00444586       0.00280874      -0.00241936      -0.47444863       0.42891439      -0.04097459      -0.47000277       0.42610565      -0.03855523
H        9.30200200       8.00858700      10.38959800      -0.00033802      -0.00658890      -0.00548406       0.11410546      -0.39627084       0.12937915       0.11444348      -0.38968194       0.13486321
H       10.62542600       8.50404900      10.81786300       0.00130128       0.01356550      -0.00002746       0.46921515      -0.23442606      -0.09449319       0.46791387      -0.24799156      -0.09446573
O       12.88582900      13.70031400       9.81003000      -0.00019812       0.02340674      -0.01174598       1.35367609       0.48981422       1.68103499       1.35387421       0.46640748       1.69278097
H       13.11722200      14.57896600      10.15083700       0.00109198      -0.00125566       0.00984563       0.21765835      -0.40378016       0.52354385       0.21656637      -0.40252450       0.51369822
H       12.41826300      13.97596600       9.05520500      -0.00615325      -0.01128053      -0.01010047      -1.64677062      -0.12658642      -2.16995822      -1.64061737      -0.11530589      -2.15985775
O        8.86825800       9.24058700       8.56946900      -0.00529179       0.00494148      -0.00709819      -1.36088881      -0.76438008      -0.75113951      -1.35559702      -0.76932156      -0.74404132
H        9.80583000       9.38340800       8.61146400       0.00023125      -0.00385018       0.00225154       0.96579312       0.03895427      -0.04538609       0.96556187       0.04280445      -0.04763763
H        8.68316300       8.60640200       7.83743600       0.00519527      -0.00380521       0.01032124       0.49930076       0.78885950       0.89989553       0.49410549       0.79266471       0.88957429
O       12.00000000      12.00000000      12.00000000       0.00858528      -0.00782502       0.00295001       1.16180879       0.73708129      -1.71669203       1.15322351       0.74490631      -1.71964204
H       11.14716400      12.29022900      12.29510300       0.00051303       0.01064955      -0.00675959      -0.67174523       0.30698316       0.18914887      -0.67225826       0.29633361       0.19590846
H       12.22959200      12.57748400      11.19347100      -0.01596779      -0.01292561       0.00654632      -0.52949596      -1.01069312       1.54601890      -0.51352817      -0.99776751       1.53947258
27
Properties=species:S:1:pos:R:3:REF_forces:R:3:DFT_forces:R:3:FOUNDATION_forces:R:3 REF_energy=-0.012116255707951495 charge=0 spin=1 external_field="0.0 0.0 0.0" config_type=ORCA_DFT source_file=C_DFTprod_cutcluster_0082.out orca_step=0 DFT_energy=-18719.717194380708 FOUNDATION_energy=-18719.705078125 pbc="F F F"
O       12.98041800       9.04711600      11.08051300      -0.01241771       0.02045374       0.00242390       1.11983892      -0.53860969       2.00148739       1.13225663      -0.55906343       1.99906349
H       13.01797500       8.67104500      12.02248300       0.00463093      -0.01237985      -0.00036916      -0.14579488       0.59500865      -1.29357943      -0.15042581       0.60738850      -1.29321027
H       12.05446100       9.05643800      10.90355000       0.00550042      -0.00715728      -0.01079992      -1.15233304      -0.14669734      -0.45663474      -1.15783346      -0.13954006      -0.44583482
O       13.89992500      13.57938800       9.72312200      -0.00502967      -0.00316928      -0.00155106       0.21723335       0.54729750       1.25310502       0.22226302       0.55046678       1.25465608
H       14.28719000      14.17860600      10.42701600       0.00840835       0.00260927       0.00310772      -0.71801152      -1.38232492      -1.25283999      -0.72641987      -1.38493419      -1.25594771
H       13.47314500      12.86569600      10.26541400      -0.00893573       0.00011854      -0.00138755       0.40151923       0.75830220      -0.45067693       0.41045496       0.75818366      -0.44928938
O       16.19943200       9.67071500      12.15671700      -0.00441195      -0.00857561      -0.00739794      -0.29326118      -0.38257622       0.68384160      -0.28884923      -0.37400061       0.69123954
H       16.47725700      10.10181400      11.35913300      -0.00017732       0.00373496      -0.00797709       0.32420302       0.44024350      -0.61354949       0.32438034       0.43650854      -0.60557240
H       15.34090900       9.31064800      11.91694200      -0.00479609       0.00127905       0.01938777      -0.15992607      -0.01195023      -0.05809845      -0.15512998      -0.01322928      -0.07748622
O       14.82799000      14.73315400      12.07058900       0.00371139      -0.00812053       0.00741678       0.66374468       2.05087782      -0.50339216       0.66003329       2.05899835      -0.51080894
H       15.36541900      14.36755300      12.75703400      -0.00020440       0.01034063      -0.00248012       0.42634170      -0.86300421       0.75155696       0.42654610      -0.87334484       0.75403708
H       15.39031000      15.50102900      11.78872200       0.00146042       0.00446549       0.00322958      -0.83195330      -0.84707674       0.15286063      -0.83341372      -0.85154223       0.14963105
O       12.56579700      16.44101400      13.22646700      -0.00615183       0.00382292       0.01012369       0.43647030      -0.56537015       0.93080827       0.44262213      -0.56919307       0.92068458
H       12.41989700      16.82096900      12.35939300       0.00374042      -0.00114960      -0.00868883       0.53891843      -0.20276863      -0.21475264       0.53517801      -0.20161903      -0.20606381
H       13.41487800      15.93737900      13.28456200       0.00219288       0.00332584      -0.00120510      -1.11915645       0.71235540      -0.84528597      -1.12134933       0.70902956      -0.84408087
O       13.19578300       7.92803700      13.78832400       0.01180236       0.00278286       0.00243645      -1.85863884       1.69087938       2.02116065      -1.87044120       1.68809652       2.01872420
H       13.99963400       7.50658300      13.56919000      -0.00568056      -0.00895251      -0.00410965       1.50452077      -0.71298737       0.19322202       1.51020133      -0.70403486       0.19733167
H       13.27173500       8.38124700      14.72589000      -0.00043099      -0.00179538       0.00908662       0.43646223      -1.08779177      -2.73260330       0.43689322      -1.08599639      -2.74168992
O       10.58370300      13.73375100      11.72320700      -0.01667725       0.00698140      -0.00782336       0.80089391      -0.35646692      -0.58795179       0.81757116      -0.36344832      -0.58012843
H       10.27005900      14.31994400      12.39246100       0.00601288      -0.00217063       0.01170922      -0.56547341       0.58542167       0.86472536      -0.57148629       0.58759230       0.85301614
H       11.44961200      14.12068500      11.51931800       0.00972285      -0.00539745      -0.01440097      -0.12659774      -0.23838941      -0.23701068      -0.13632059      -0.23299196      -0.22260971
O       14.41576100       9.63630600      15.51989900       0.01574221       0.00354736      -0.00285974       1.32808009      -0.72013689       0.82036647       1.31233788      -0.72368425       0.82322621
H       14.72080400      10.13135500      14.72774200      -0.00928069       0.01162152      -0.01052096       0.25257712      -0.68596883       0.81929777       0.26185781      -0.69759035       0.82981873
H       15.17796000       9.13293300      15.96767400      -0.00835819      -0.00696355       0.00878710      -1.49309726       1.51147360      -1.44788903      -1.48473907       1.51843715      -1.45667613
O       12.83553400      11.85591400      11.55612600       0.00249592      -0.00740147       0.00632147       0.50361482      -1.75596774      -0.26356848       0.50111890      -1.74856627      -0.26988995
H       12.89082100      10.87161900      11.33746700       0.00194267       0.01621545      -0.00577465      -0.02683430       1.47895444       0.43874475      -0.02877697       1.46273899       0.44451940
H       12.00000000      12.00000000      12.00000000       0.00518904      -0.01806637       0.00331483      -0.46334054       0.12727301       0.02665622      -0.46852958       0.14533938       0.02334139
27
Properties=species:S:1:pos:R:3:REF_forces:R:3:DFT_forces:R:3:FOUNDATION_forces:R:3 REF_energy=0.03144005153080798 charge=0 spin=1 external_field="0.0 0.0 0.0" config_type=ORCA_DFT source_file=C_DFTprod_cutcluster_0083.out orca_step=0 DFT_energy=-18719.15215369847 FOUNDATION_energy=-18719.18359375 pbc="F F F"
O       12.56063500       9.38587000      10.74225700      -0.01540439       0.00675355       0.01249599       0.08407657       0.79134540       1.06148994       0.09948096       0.78459185       1.04899395
H       12.88754900       8.74339300      11.40605300       0.00478984       0.00364637      -0.00308590      -0.39118217       0.89163684      -0.47178980      -0.39597201       0.88799047      -0.46870390
H       12.45485600      10.28879500      11.17750200       0.01241559      -0.02892590      -0.01214435       0.28691235      -1.74787915      -0.68332096       0.27449676      -1.71895325      -0.67117661
O        9.85378600      13.46606800      12.43247800       0.00944612      -0.00828845      -0.01244764      -0.22284915      -2.09433276      -1.11019950      -0.23229527      -2.08604431      -1.09775186
H       10.59646700      12.82356900      12.12209600      -0.01606818      -0.00443421       0.01524816      -1.42240318       1.08760073       0.64698098      -1.40633500       1.09203494       0.63173282
H        9.03072500      12.92483500      12.27047400      -0.00139418       0.00153871      -0.01983293       1.18424306       1.00169678       0.36871211       1.18563724       1.00015807       0.38854504
O       10.33345500      14.36733500      14.92738000       0.03976199       0.00682204      -0.01010017      -1.74794081       0.45195626      -1.59187977      -1.78770280       0.44513422      -1.58177960
H       11.09984200      14.10096700      15.37909300      -0.00823443      -0.00130772       0.01705498       1.44542689      -0.79021602       0.56132663       1.45366132      -0.78890830       0.54427165
H       10.23196700      13.92860700      14.02622400      -0.01126397      -0.00891168       0.00467179       0.27758002       0.43967204       1.21769867       0.28884399       0.44858372       1.21302688
O       12.00000000      12.00000000      12.00000000       0.00089029       0.02556659       0.01835847      -0.65628215       0.09446244      -1.32911825      -0.65717244       0.06889585      -1.34747672
H       12.48262300      12.82108700      11.94139300      -0.00708734       0.01567389      -0.01767210       0.71362568       0.27928893      -0.27169127       0.72071302       0.26361504      -0.25401917
H       12.19562900      11.62038200      12.84013800       0.00898980      -0.01787225       0.01843188       0.42985310      -0.68068043       1.41288254       0.42086330      -0.66280818       1.39445066
O       12.20416800      13.54163900       9.06418100       0.00378203       0.03714280       0.00379986       0.44960123       0.88914524       1.46102161       0.44581920       0.85200244       1.45722175
H       12.32536700      14.23341600       8.42917300      -0.00230620      -0.01774520       0.00310842      -0.23804720       0.38502797      -1.29865464      -0.23574100       0.40277317      -1.30176306
H       12.48759600      14.07191600       9.85795800      -0.02448878      -0.01250146      -0.00706203      -0.46128068      -1.18686281      -0.40344350      -0.43679190      -1.17436135      -0.39638147
O       13.74922300      14.22293000      11.17427300       0.01778086      -0.00320811       0.01632188      -0.49678926       1.59417515       2.33675001      -0.51457012       1.59738326       2.32042813
H       14.46836600      14.43092900      10.56606900      -0.00145835      -0.01456632       0.00057506       0.10698644       0.21583122       0.42663830       0.10844479       0.23039754       0.42606324
H       13.69605400      14.90609500      11.94345500      -0.00690767       0.01481821      -0.00164378       0.54122821      -1.54129825      -2.35412085       0.54813588      -1.55611646      -2.35247707
O        8.73433500       9.78011300      10.61026100      -0.00422847      -0.00891842      -0.00487761       0.11627527       1.68383132       1.80383618       0.12050374       1.69274974       1.80871379
H        9.25723800      10.44457800      10.15650000      -0.00687008      -0.00244226      -0.00510990       0.10183420      -0.29135959      -0.29671674       0.10870428      -0.28891733      -0.29160684
H        8.54542900       9.07762900      10.03843800       0.00935718       0.01086997       0.00835134      -0.16964171      -1.36143280      -1.48615240      -0.17899889      -1.37230277      -1.49450374
O       13.70983000      11.31281700       8.21844800       0.01610752       0.00618782      -0.00113628       1.91750189       1.81103697      -2.42799852       1.90139437       1.80484915      -2.42686224
H       14.26153200      11.67319900       7.41207300      -0.00164488       0.00017138      -0.00338900      -1.55798677      -1.36623208       2.26578987      -1.55634189      -1.36640346       2.26917887
H       13.41684200      12.16782500       8.59707800      -0.00035943      -0.01185307      -0.00265267      -0.34187324      -0.59536222       0.04774225      -0.34151381      -0.58350915       0.05039492
O       13.33358000      10.86072900      14.19593000      -0.00417206       0.00996763      -0.00044056       0.65652564      -1.29730969      -0.04717023       0.66069770      -1.30727732      -0.04672967
H       13.96554700      11.58585900      14.22640800      -0.00864808      -0.00737356      -0.00145001       0.22354628      -0.18179511       0.07431219       0.23219436      -0.17442155       0.07576220
H       13.86765200      10.01941500      14.12465600      -0.00278507       0.00918941      -0.01537320      -0.82894049       1.51805357       0.08707520      -0.82615542       1.50886416       0.10244840
27
Properties=species:S:1:pos:R:3:REF_forces:R:3:DFT_forces:R:3:FOUNDATION_forces:R:3 REF_energy=0.02378821891034022 charge=0 spin=1 external_field="0.0 0.0 0.0" config_type=ORCA_DFT source_file=C_DFTprod_cutcluster_0084.out orca_step=0 DFT_energy=-18720.11097740609 FOUNDATION_energy=-18720.134765625 pbc="F F F"
O       13.69970500      14.41781300      11.47240800       0.01069790      -0.00832028      -0.01790881      -0.70909298      -0.55968750       0.12409914      -0.71979088      -0.55136722       0.14200795
H       13.74743200      14.87904800      12.30929200       0.00279485       0.00909584      -0.00931912      -0.05158297       0.18697660       0.43678243      -0.05437782       0.17788076       0.44610155
H       14.41496700      14.73831300      10.94451200      -0.00077152       0.01468873       0.01274212       0.67114210       0.24397555      -0.53714411       0.67191362       0.22928682      -0.54988623
O       13.32350000      16.28058500      13.80613100      -0.01073253      -0.01249488      -0.01620850      -0.36891708      -0.77324267       0.57137486      -0.35818455      -0.76074779       0.58758336
H       13.85016000      16.09259500      14.59336200       0.00533200       0.00931398       0.02583190      -0.28211298      -0.11980467       0.22308271      -0.28744498      -0.12911865       0.19725081
H       13.93796700      16.71115500      13.23763700       0.00240932      -0.00670926       0.00042964       0.63354717       0.87853517      -0.79476677       0.63113785       0.88524443      -0.79519641
O       13.15746100       9.96219100      16.15883400      -0.01203765      -0.01299453       0.01730828       0.84576069       1.07384944      -1.08304258       0.85779834       1.08684397      -1.10035086
H       13.75240500      10.44173000      16.77885600       0.00025259       0.00780596      -0.01563800      -0.47247331      -0.54283438      -0.93651164      -0.47272590      -0.55064034      -0.92087364
H       13.43922200      10.20347400      15.20095800       0.00541703      -0.01461254      -0.00276730      -0.29930281      -0.57460998       2.16925862      -0.30471984      -0.55999744       2.17202592
O       11.00936000      14.25029800      13.52235000      -0.01273752       0.00128759       0.00713428      -0.49613795       0.79335369      -0.17015860      -0.48340043       0.79206610      -0.17729288
H       10.07814000      14.54707700      13.53524300       0.01432074       0.00380936      -0.00010731       0.65363366      -0.29738760       0.06289119       0.63931292      -0.30119696       0.06299850
H       11.51413000      15.06667800      13.33009500      -0.00512065      -0.00682164      -0.00449165      -0.13691048      -0.49965573       0.21646798      -0.13178983      -0.49283409       0.22095963
O       13.70487400      10.31907600      13.43866500      -0.01156360       0.03058910       0.00616008       1.49033970       0.08579114      -1.17246550       1.50190330       0.05520204      -1.17862558
H       14.50169800      10.36023600      12.83957600      -0.00435138      -0.00201205       0.00401441      -1.11922109      -0.16830119       1.16770927      -1.11486971      -0.16628914       1.16369486
H       13.15091100      11.03849200      13.09091500       0.02327649      -0.02532289       0.01224048      -0.40152170       0.00711455      -0.26855509      -0.42479819       0.03243744      -0.28079557
O       15.18391300      12.95944000      15.92603700       0.00062189       0.00281402      -0.00187769       0.24908129       0.36846014      -1.22482386       0.24845940       0.36564612      -1.22294617
H       15.23963000      13.35771500      15.01935900      -0.00144895      -0.00684996       0.00009874      -0.18846743      -0.72757067       1.33153216      -0.18701848      -0.72072071       1.33143342
H       14.26848900      12.63894400      16.00354400       0.01026457       0.00941691      -0.01086054       0.11051075       0.47844109      -0.16200142       0.10024618       0.46902418      -0.15114088
O       12.39582900      13.39789300      16.03883500      -0.02117061      -0.00513395      -0.00359067      -0.61982226      -1.27714237       2.19137016      -0.59865165      -1.27200842       2.19496083
H       11.85980700      12.76614600      16.62198800       0.01266308       0.00330010      -0.01006354       1.09643288       1.27547851      -1.47673882       1.08376980       1.27217841      -1.46667528
H       12.02405400      13.35047700      15.16715600       0.00889968       0.00130366       0.01098663      -0.68388207      -0.04941666      -0.73051387      -0.69278175      -0.05072032      -0.74150050
O       12.03144200       7.84039100      12.48319400      -0.00300190       0.00433937       0.01294296       0.07086609      -0.23601916      -0.06404073       0.07386799      -0.24035853      -0.07698369
H       12.72526000       8.51256100      12.52786500      -0.00088343      -0.00705490      -0.00739374      -0.33417952       0.13272087       0.10255627      -0.33329609       0.13977577       0.10995001
H       11.30410600       8.20592100      11.97034400       0.00433470      -0.00023688      -0.00566873       0.21965296       0.16236955       0.04708400       0.21531826       0.16260643       0.05275273
O       12.00000000      12.00000000      12.00000000      -0.00430648      -0.01779876      -0.00732870      -1.33571617      -1.58005557       1.24894266      -1.33140969      -1.56225681       1.25627136
H       12.47289000      12.71477000      11.65156700      -0.00934032       0.01763140       0.00408599       1.42730113       1.84955703      -1.12510958       1.43664145       1.83192563      -1.12919557
H       11.38001800      12.45485300      12.59282600      -0.00381837       0.01096668      -0.00075077       0.03107235      -0.13089518      -0.14727892       0.03489072      -0.14186186      -0.14652815
27
Properties=species:S:1:pos:R:3:REF_forces:R:3:DFT_forces:R:3:FOUNDATION_forces:R:3 REF_energy=0.011890198449691525 charge=0 spin=1 external_field="0.0 0.0 0.0" config_type=ORCA_DFT source_file=C_DFTprod_cutcluster_0085.out orca_step=0 DFT_energy=-18719.47248480155 FOUNDATION_energy=-18719.484375 pbc="F F F"
O       12.40925600      15.86547700      15.47139500       0.00256019      -0.00617276       0.01704026      -0.36904121      -0.95228027      -1.11313354      -0.37160140      -0.94610751      -1.13017380
H       12.18776100      15.31168400      14.67618000       0.00287725       0.01907951       0.00113872       0.20201077       0.77855468       1.01106814       0.19913352       0.75947517       1.00992942
H       12.97070700      16.55164500      15.10612600      -0.00453874      -0.00478671      -0.00895508       0.10715937       0.17200424      -0.00900945       0.11169811       0.17679095      -0.00005437
O       12.00000000      12.00000000      12.00000000       0.00732582      -0.00212610      -0.00753999      -0.78696496       0.91570550       1.11753630      -0.79429078       0.91783160       1.12507629
H       11.53585700      12.73247800      12.47869100      -0.00311118       0.00215865       0.00005379       0.28728378      -0.11555418      -1.09393511       0.29039496      -0.11771283      -1.09398890
H       12.11033500      11.41435600      12.75860400      -0.00379866      -0.00458367       0.01388558       0.43901456      -0.71077247      -0.37523798       0.44281322      -0.70618880      -0.38912356
O       13.46782900      10.43603100       8.42973400       0.00538857       0.00191383       0.00059490       2.63658221       0.19978486      -1.31840117       2.63119364       0.19787103      -1.31899607
H       14.19726600      10.64070100       7.69361600      -0.00693179      -0.00315454      -0.00136692      -2.30603314      -0.80961391       2.74785679      -2.29910135      -0.80645937       2.74922371
H       13.93568900      10.06499900       9.22627400      -0.00228865       0.00407122      -0.00399930      -0.43552167       0.67290912      -1.42681283      -0.43323302       0.66883790      -1.42281353
O       13.28365900      14.56935200      10.45237300       0.01981638      -0.02126944       0.00372407       0.19077618       0.07178572      -0.35908040       0.17095980       0.09305516      -0.36280447
H       13.57249300      13.93585000      11.11694300       0.00047994       0.00962570      -0.00355647      -0.10733817      -0.18715678      -0.14860273      -0.10781811      -0.19678248      -0.14504626
H       13.51150600      14.18577400       9.58844600      -0.02366240       0.01045948      -0.00046791      -0.23435715       0.09001762       0.53030585      -0.21069475       0.07955814       0.53077376
O       11.10048900      13.10968800       7.53208100       0.00440520      -0.00006997      -0.00144926      -1.16684121      -1.12493979       0.58983430      -1.17124641      -1.12486982       0.59128356
H       11.40547200      12.26753000       7.91741800       0.00795567      -0.01059074       0.01240950       0.40534380       0.45365088      -0.24327929       0.39738813       0.46424162      -0.25568879
H       10.14872400      13.00610700       7.78273400      -0.00513767       0.00674632      -0.00285660       0.89330883       0.75507685      -0.26087602       0.89844650       0.74833053      -0.25801942
O        8.29920800      13.29298900       9.43296100       0.00658976      -0.00546551       0.00943268       0.99548607      -0.94660652       0.86328436       0.98889631      -0.94114101       0.85385168
H        8.90048100      12.61075300       9.87792000      -0.01065217       0.00191054      -0.01034623      -1.06860064       1.29773578      -0.84004241      -1.05794847       1.29582524      -0.82969618
H        7.90967700      12.74165100       8.75261300      -0.00751369      -0.00492115      -0.00304809      -0.33478980       0.04887431      -0.19659325      -0.32727611       0.05379546      -0.19354516
O       12.77101400       9.54069100      13.23050000       0.00512059       0.00900220      -0.00491067      -0.38178514      -0.45838351       1.03116075      -0.38690573      -0.46738571       1.03607142
H       12.47700600       9.17622300      14.08662500      -0.00315407       0.00241135      -0.00840650      -0.12261561       0.42145069      -0.45589025      -0.11946154       0.41903934      -0.44748375
H       13.51783800       8.97164000      13.05567000      -0.00023337      -0.00630454       0.00846039       0.48235328      -0.05207533      -0.43584974       0.48258665      -0.04577079      -0.44431013
O        9.85574200      11.18594500       9.68965000       0.03896824      -0.00466552      -0.00624544       1.96615163      -0.82142248       0.88731008       1.92718339      -0.81675696       0.89355552
H       10.71418000      11.15210700      10.23491800      -0.00864735       0.00013727       0.00186844      -1.67086401      -0.00657637      -1.00643568      -1.66221666      -0.00671364      -1.00830412
H        9.76123700      10.34461900       9.20946200      -0.02278391       0.00838337      -0.00349466       0.25362089       0.44006450       0.45139514       0.27640480       0.43168113       0.45488980
O       10.67491900      14.57800500      12.99725600       0.00758211      -0.01304487       0.00567478      -0.86646219       0.23695422       0.07498854      -0.87404430       0.24999909       0.06931376
H        9.93790500      14.63688200      13.62599600      -0.00560152       0.00778769      -0.00207230       0.38910255      -0.21035148       0.16512397       0.39470407      -0.21813917       0.16719627
H       10.25245900      14.99390500      12.22804900      -0.00101378       0.00346808      -0.00556743       0.60302118      -0.15883587      -0.18668416       0.60403496      -0.16230395      -0.18111673
27
Properties=species:S:1:pos:R:3:REF_forces:R:3:DFT_forces:R:3:FOUNDATION_forces:R:3 REF_energy=0.0049443118514318485 charge=0 spin=1 external_field="0.0 0.0 0.0" config_type=ORCA_DFT source_file=C_DFTprod_cutcluster_0086.out orca_step=0 DFT_energy=-18720.04388381315 FOUNDATION_energy=-18720.048828125 pbc="F F F"
O       14.27949300      11.38282700       9.35837700      -0.00088785      -0.01487657       0.01022851      -1.16950009       0.57963077      -0.89818693      -1.16861224       0.59450734      -0.90841544
H       13.92748700      11.89158300       8.55675700      -0.00188313       0.00387039       0.00499647       0.44345995      -1.39361618       1.83045595       0.44534308      -1.39748657       1.82545948
H       13.56734900      10.78343700       9.70392700       0.00360898       0.00832680      -0.01866625       0.56487177       0.84224209      -0.83198087       0.56126279       0.83391529      -0.81331462
O        9.94709700      10.26440900      14.33998500      -0.02225082      -0.00061428       0.01136182      -0.45390372      -0.67053234       1.44256721      -0.43165290      -0.66991806       1.43120539
H        9.79778200      10.19437800      15.32072000       0.01000812       0.00044565      -0.00900188       0.23802514       0.13569111      -1.47613266       0.22801702       0.13524546      -1.46713078
H        9.85811800       9.34635600      14.02497200       0.01062586      -0.00143780       0.00086275       0.12835112       0.56506018       0.13976127       0.11772526       0.56649798       0.13889852
O       11.50353400      11.20915900      12.26312300       0.03044635       0.01758763       0.03587895      -1.34187895       1.01398089       0.60663646      -1.37232530       0.99639326       0.57075751
H       12.00000000      12.00000000      12.00000000      -0.00876653       0.01268542       0.00643340       0.82817769      -0.01685081      -0.51791396       0.83694422      -0.02953623      -0.52434736
H       10.84656400      11.64696800      12.85693900      -0.00386344      -0.01748489      -0.02668828       0.38958762      -1.24257682      -0.29821050       0.39345106      -1.22509193      -0.27152222
O       14.63551600      11.67040800      13.91576100       0.00070390      -0.00003239       0.00005483      -2.19920436      -0.62255915       0.84216588      -2.19990826      -0.62252676       0.84211105
H       15.42422900      11.70307600      13.43519600      -0.01190963       0.00016007       0.00005291       2.07797751      -0.11095242      -0.95573409       2.08988714      -0.11111249      -0.95578700
H       14.24084500      10.75713400      13.74296100       0.00393912       0.01498158      -0.00288839       0.51455363       0.94887407       0.11902290       0.51061451       0.93389249       0.12191129
O       10.11688200      14.92112700      11.71718000      -0.00037515       0.00778967       0.00952251       1.13421273       1.11773103       0.40893008       1.13458788       1.10994136       0.39940757
H       10.62419800      15.77365400      11.67906000      -0.00337972      -0.01230534      -0.00563551      -0.78790213      -1.01108660      -0.22411969      -0.78452241      -0.99878126      -0.21848418
H       10.64910800      14.43942700      12.36855400      -0.00148170      -0.00076282      -0.01084478      -0.27904113      -0.10267223      -0.22349095      -0.27755943      -0.10190941      -0.21264617
O       13.35929100       9.42364600      13.25302500      -0.03427131       0.00834702      -0.02192898      -0.20521976      -0.27907856      -0.82172222      -0.17094845      -0.28742558      -0.79979324
H       12.61663800       9.96407900      12.92037500       0.01223744       0.00324647       0.01680400      -0.45918070       0.40939514       0.50538369      -0.47141814       0.40614867       0.48857969
H       13.59164000       9.02146300      12.40396000       0.01498722      -0.01123154      -0.00006179       0.41857933      -0.33686504       0.29585691       0.40359211      -0.32563350       0.29591870
O       11.52894100       9.27918400      10.14905800      -0.02101429      -0.01949952      -0.00295585      -1.29161413       0.87909993       0.15994777      -1.27059984       0.89859945       0.16290362
H       10.85842300       9.91828800      10.53828200       0.00027386       0.00851913      -0.00808430       1.33325068      -0.99512200      -0.48552099       1.33297682      -1.00364113      -0.47743669
H       11.07060200       8.84772700       9.40785000       0.01160542       0.00407881       0.00221240       0.24833778       0.22560907       0.38859003       0.23673236       0.22153026       0.38637763
O       13.64572800      16.25452800      11.92892000       0.00527825      -0.00751380       0.00469026      -0.86027930       1.02308866       1.70756456      -0.86555755       1.03060246       1.70287430
H       13.46721700      17.01037700      12.60721200       0.00581772       0.01542255      -0.00145959       0.31593014      -2.56939295      -1.64031195       0.31011242      -2.58481550      -1.63885236
H       13.27644000      15.38145600      12.23800600      -0.00525401      -0.00684789       0.00324763       0.57299944       1.40381631      -0.12917593       0.57825345       1.41066420      -0.13242356
O       13.39194200      13.08532700      11.80863700      -0.01898413      -0.02196712       0.01948899       0.21966484       0.71430033      -3.07300597       0.23864897       0.73626745      -3.09249496
H       13.93213200      12.75345400      12.49947000       0.02524966       0.00019771      -0.00967938       0.87778276      -0.80963772       1.86125010       0.85253310      -0.80983543       1.87092948
H       13.95203900      12.89902800      10.98662700      -0.00045947       0.00891506      -0.00793987      -1.25803784       0.30242320       1.26737387      -1.25757837       0.29350814       1.27531374
27
Properties=species:S:1:pos:R:3:REF_forces:R:3:DFT_forces:R:3:FOUNDATION_forces:R:3 REF_energy=-0.005952494117082097 charge=0 spin=1 external_field="0.0 0.0 0.0" config_type=ORCA_DFT source_file=C_DFTprod_cutcluster_0087.out orca_step=0 DFT_energy=-18720.410249369117 FOUNDATION_energy=-18720.404296875 pbc="F F F"
O        9.56751600      14.52886900      13.38443700      -0.01092172       0.00172601      -0.01869675      -1.27128601       1.96900962       0.44032953      -1.26036429       1.96728361       0.45902628
H        8.91200200      15.24900800      13.61426100       0.00863570       0.01195160       0.00870919       0.82221067      -1.42811200      -0.22096566       0.81357497      -1.44006360      -0.22967485
H       10.32165100      15.06967000      13.08266400      -0.01435443      -0.00138868       0.00488183       0.30864517      -0.55168201      -0.16203515       0.32299960      -0.55029333      -0.16691698
O        7.71056100      12.62435000      12.29449000       0.00844197       0.01275149       0.01002277       0.26204552       1.76413968      -1.72487127       0.25360355       1.75138819      -1.73489404
H        7.56867300      13.30196000      11.54536900       0.00028671      -0.00053509       0.00936566       0.26951570      -1.60210129       1.81471334       0.26922899      -1.60156620       1.80534768
H        8.46809800      13.03039600      12.77937100      -0.00099045      -0.01108078      -0.01720563      -0.46488932      -0.30934868      -0.28104422      -0.46389887      -0.29826790      -0.26383859
O       10.22622500      11.89875200      14.90707800       0.00115677      -0.02101716       0.01126662       0.56401857      -0.01110202      -0.76696589       0.56286180       0.00991514      -0.77823251
H       10.77947500      12.27471900      14.18419200       0.01006518       0.02173602      -0.01961950      -0.35849239      -0.62837077       0.26937332      -0.36855757      -0.65010679       0.28899282
H       10.05706200      12.67358500      15.42812900       0.00004689       0.00014476      -0.00238364      -0.37693789       0.46374873       0.57559414      -0.37698478       0.46360397       0.57797778
O       11.88579700      12.42354800       9.95094800       0.00006751      -0.01994662      -0.02686562      -0.22319604      -1.13669734      -0.34219061      -0.22326355      -1.11675072      -0.31532499
H       12.64953800      11.80776100       9.90932700      -0.00681635       0.01396084      -0.00618131      -0.31491681       0.35733554      -0.21009211      -0.30810046       0.34337470      -0.20391080
H       11.18034200      11.88997600       9.51770400       0.00231131       0.01117428       0.02251972       0.68229683       0.76348462       0.50694008       0.67998552       0.75231034       0.48442036
O       12.15604600      12.07577000      12.92676600       0.01423642      -0.00509362      -0.02080635       0.78114948      -2.26787905       1.25299462       0.76691306      -2.26278543       1.27380097
H       12.00000000      12.00000000      12.00000000      -0.00894426      -0.01103840       0.02709216      -0.54260354       0.59108915      -1.62654251      -0.53365928       0.60212755      -1.65363467
H       12.23286600      11.07631000      13.12740200      -0.00860747       0.01230663       0.00352442      -0.38838085       1.79924244       0.26471412      -0.37977338       1.78693581       0.26118970
O       11.04854900       9.42203300      13.37453400       0.00640963      -0.00467195      -0.00347940       0.11080962      -0.04950089      -2.13528863       0.10439999      -0.04482894      -2.13180923
H       10.70746200       9.72261700      14.19980200      -0.00339649       0.00188686       0.00679121      -0.65135489       0.56334998       0.92570571      -0.64795840       0.56146312       0.91891450
H       10.42367400       9.74043400      12.65037400      -0.00421296       0.00831810      -0.00608248       0.76589806      -0.43385806       1.38224321       0.77011102      -0.44217616       1.38832569
O       12.14897000      14.95675000      12.79046500       0.00616127       0.02083291       0.00441744       0.00821051       0.36394395       0.16056818       0.00204924       0.34311104       0.15615074
H       12.69202800      14.92388900      12.00127500       0.00537591      -0.00852728      -0.00822587       0.01902437      -0.02945790      -0.15943309       0.01364846      -0.02093062      -0.15120722
H       12.16105000      14.05693600      13.13776600      -0.01148072      -0.01764917       0.01755909       0.16060011      -0.30003419      -0.04584406       0.17208083      -0.28238502      -0.06340315
O        9.51796300      10.32202600      11.28359900       0.01490888      -0.01967758       0.00163269       0.60745546      -0.58645099       0.89450532       0.59254658      -0.56677341       0.89287263
H        9.79266600      10.20391600      10.40008300      -0.00016206       0.00652379      -0.00628704       0.68785155      -0.53760707      -1.47117907       0.68801361      -0.54413086      -1.46489203
H        8.76603700      10.87587700      11.20584600      -0.01011015       0.00136227       0.00235359      -1.45525468       1.21001024       0.57076494      -1.44514453       1.20864797       0.56841135
O       13.75232700      10.20711900       9.56567200       0.01440018      -0.01340514      -0.00198056      -1.30563385       0.40515817      -2.04867079      -1.32003403       0.41856331      -2.04669023
H       13.97309700       9.68482100       8.77123500       0.00205535       0.01016926      -0.00436393      -0.01121664       0.36469039       0.78696259      -0.01327199       0.35452113       0.79132652
H       14.31458700       9.96190100      10.26086900      -0.01456263      -0.00081403       0.01204186       1.31443129      -0.74300028       1.34971397       1.32899392      -0.74218625       1.33767211
27
Properties=species:S:1:pos:R:3:REF_forces:R:3:DFT_forces:R:3:FOUNDATION_forces:R:3 REF_energy=0.024452317662507994 charge=0 spin=1 external_field="0.0 0.0 0.0" config_type=ORCA_DFT source_file=C_DFTprod_cutcluster_0088.out orca_step=0 DFT_energy=-18719.842735182337 FOUNDATION_energy=-18719.8671875 pbc="F F F"
O       15.30844600      10.49771800      11.06410700      -0.01220140      -0.00260943       0.00736643      -1.74383244      -0.12180078      -2.40858196      -1.73163104      -0.11919135      -2.41594839
H       15.29556500       9.99470300      10.17851800      -0.00087805       0.01666136      -0.00480643       0.08251103       1.14192696       2.10595903       0.08338908       1.12526560       2.11076546
H       14.36664900      10.79916500      11.18853800      -0.00758479       0.00029991      -0.02651379       0.79983534      -0.71194490      -0.01280991       0.80742013      -0.71224481       0.01370388
O       15.80042600      13.56075900      11.48704400      -0.02211255       0.00576084       0.00193290      -0.35668320      -0.93773050      -0.03742318      -0.33457065      -0.94349134      -0.03935608
H       15.66723600      12.60063500      11.33413400       0.00146660      -0.00749763      -0.03451426       0.41836536       0.36991076      -0.05556715       0.41689876       0.37740839      -0.02105289
H       16.47094600      13.82285500      10.84685300       0.01693137      -0.00817228       0.01315534      -0.05029639       0.04076551      -0.02866050      -0.06722776       0.04893779      -0.04181584
O       17.03817300      10.09271400      12.97745900       0.02068248       0.02354864      -0.01467940       0.04655960      -2.24397370      -0.49678823       0.02587712      -2.26752234      -0.48210883
H       17.35182300       9.11029100      12.97670500      -0.02017868       0.00201697       0.00482543      -1.18107093       2.80268664      -0.14816214      -1.16089225       2.80066967      -0.15298757
H       16.25547300      10.18290100      12.34228700       0.01538795      -0.02945865       0.03432111       1.62176376      -0.75016630       1.09437112       1.60637581      -0.72070765       1.06005001
O       13.47358300      15.36277400       8.78010600      -0.00099104       0.02280924      -0.02134254      -1.68001776      -0.52221325       0.53545490      -1.67902672      -0.54502249       0.55679744
H       13.01490100      15.16217600       9.64018300       0.00671826      -0.00857844       0.00403059       0.87733893       0.32201619      -0.71782737       0.87062067       0.33059463      -0.72185796
H       12.72617800      15.23792700       8.15725000       0.00605387      -0.00852999       0.00455379       0.83853394       0.19185722       0.26063141       0.83248007       0.20038721       0.25607762
O       12.53185700      11.34067100      12.36293900       0.00945476       0.02708249       0.02696227       1.86009887      -1.34236391       0.69217049       1.85064411      -1.36944640       0.66520822
H       13.13114900      11.87682100      12.90422900      -0.00920233      -0.01349624       0.00037340      -0.12837586      -0.27245705       0.56441329      -0.11917353      -0.25896081       0.56403989
H       12.00000000      12.00000000      12.00000000       0.01359945       0.00538750      -0.01356084      -1.69666797       1.58054979      -1.25979097      -1.71026742       1.57516229      -1.24623013
O       16.84174400      14.67892200      13.90313400      -0.00500946      -0.01839472       0.01149123       0.35136421       2.21027564      -0.81850607       0.35637367       2.22867036      -0.82999730
H       16.48820000      13.98417300      13.34097800       0.00105370      -0.00978091       0.00161786       0.26950110       0.13557701      -0.52120780       0.26844740       0.14535792      -0.52282566
H       16.98135100      15.49441200      13.30126200      -0.00391507       0.02454926      -0.01274482      -0.49349156      -2.25611995       1.40802130      -0.48957649      -2.28066921       1.42076612
O       12.44334800       8.53592900      12.86146100      -0.00057107      -0.01033975      -0.01128484      -0.48272702      -1.72057475       0.11862444      -0.48215595      -1.71023500       0.12990928
H       11.66809800       7.98836700      13.12493200      -0.00568579       0.00585852       0.00281670       0.88495542       0.91763548      -0.25578303       0.89064121       0.91177696      -0.25859973
H       12.23150200       9.45348700      12.98500000       0.00352491      -0.01835451       0.01276117      -0.38395130       0.74885931       0.05462638      -0.38747621       0.76721382       0.04186521
O       13.67837500      13.13748800      14.21678500      -0.01084283      -0.01292782      -0.00766870      -0.04229876       0.55834420       0.39611766      -0.03145593       0.57127202       0.40378636
H       13.55461100      13.66075500      15.04216000       0.01042889      -0.00851736      -0.00665574       0.40159045      -0.57925740      -0.97405778       0.39116156      -0.57074004      -0.96740204
H       14.49477800      13.44116300      13.78878000       0.00401085       0.02607278       0.00758945      -0.12746260       0.23499700       0.60777675      -0.13147345       0.20892422       0.60018730
O       13.12694900      14.49898900      11.56442500      -0.03548640      -0.01354089       0.00617218      -0.59480435       0.23603392      -0.83929884      -0.55931795       0.24957481      -0.84547102
H       13.96435500      14.03482300      11.44444200       0.00456348      -0.00597661       0.01049179       0.23645461       0.14070255       0.34965396       0.23189113       0.14667916       0.33916217
H       12.78599200      14.37786500      12.44810600       0.02078291       0.01612668       0.00331001       0.27280759      -0.17353575       0.38664417       0.25202468      -0.18966243       0.38333416
27
Properties=species:S:1:pos:R:3:REF_forces:R:3:DFT_forces:R:3:FOUNDATION_forces:R:3 REF_energy=-0.006205851743288804 charge=0 spin=1 external_field="0.0 0.0 0.0" config_type=ORCA_DFT source_file=C_DFTprod_cutcluster_0089.out orca_step=0 DFT_energy=-18719.945658976743 FOUNDATION_energy=-18719.939453125 pbc="F F F"
O       11.71404400      11.28348700      12.65039200       0.00231339       0.03096823       0.00187976       0.15930526       1.31506733      -0.55021458       0.15699187       1.28409910      -0.55209434
H       12.00000000      12.00000000      12.00000000       0.00814284       0.01615438       0.00019255      -0.21771193      -1.00774267       0.64528045      -0.22585477      -1.02389705       0.64508790
H       12.13386800      11.61933800      13.45888900      -0.00761142      -0.03843880      -0.00714457       0.00807625      -0.22965938       0.12711962       0.01568767      -0.19122058       0.13426419
O       14.11552400      15.11678100      12.07752700      -0.00826226       0.00493197       0.00333138      -0.80706034       0.05389418       0.34003963      -0.79879808       0.04896221       0.33670825
H       13.17618400      15.37911600      12.30275000      -0.00466146      -0.00049379       0.00107578       1.77201317      -0.78154024       0.14183903       1.77667463      -0.78104645       0.14076325
H       14.49304300      14.55941300      12.79581200       0.00972515      -0.00235932      -0.00099168      -0.94161827       0.66712357      -0.58818010      -0.95134342       0.66948289      -0.58718842
O        9.06730600      12.57601600      12.89211000      -0.00951367      -0.00923711      -0.01480546       0.51126010       0.43416762      -0.09826850       0.52077377       0.44340473      -0.08346304
H        8.23119400      12.14100900      13.01419800       0.00098929       0.01167420       0.00157769      -0.37822571      -0.37459865       0.10834455      -0.37921500      -0.38627285       0.10676686
H        9.76416100      11.90550700      12.93153100       0.01432950      -0.00799393       0.00148397       0.00869218      -0.07194713       0.03694578      -0.00563732      -0.06395320       0.03546181
O       10.44492800      11.99157600       9.84465500      -0.00328048       0.00994765       0.00510732       0.49543146      -0.99995650      -0.57043209       0.49871194      -1.00990415      -0.57553941
H       10.91325200      11.52315500       9.11697000       0.01698632      -0.00420315      -0.00626928      -0.51666759       0.46755489       0.58667868      -0.53365391       0.47175804       0.59294796
H       10.26965500      11.27416300      10.48246100      -0.00821926      -0.00705092       0.01629302      -0.00670019       0.56244321      -0.16296887       0.00151907       0.56949413      -0.17926189
O       14.18038000      10.22577800      10.65927500      -0.01439560       0.00472243      -0.03925179       0.69273310       0.23998807       0.07512414       0.70712870       0.23526564       0.11437593
H       13.56247000      10.93414100      10.81928800      -0.00637916      -0.01175911       0.00674371      -0.15187235       1.08407169      -0.09027740      -0.14549319       1.09583080      -0.09702111
H       13.61418100       9.48271100      10.76804800       0.00725755       0.00546539       0.01784316      -0.46713919      -1.33853590       0.07733303      -0.47439674      -1.34400129       0.05948987
O       11.85589000       8.97200400      14.17430300      -0.00299192      -0.02162131       0.00014292      -0.59018171      -1.13475641       0.97785817      -0.58718979      -1.11313510       0.97771525
H       12.01895200       9.61819900      13.48786800       0.00507421       0.00651392       0.01210419       0.60860140      -0.05702280      -0.41595372       0.60352719      -0.06353672      -0.42805791
H       12.53031900       8.27893800      14.26899700       0.00434964       0.01663540      -0.00420595      -0.33320893       0.80407421      -0.53452421      -0.33755857       0.78743881      -0.53031826
O       14.23209800      10.59098100      14.06444400      -0.03465963      -0.00209003      -0.00071998       0.59909284      -2.13356810       0.00146393       0.63375247      -2.13147807       0.00218391
H       14.40056800      10.69962500      13.12579600       0.00971529      -0.01490653       0.01125001       0.09594664       0.43975967      -0.51945163       0.08623135       0.45466620      -0.53070164
H       14.37176700       9.59508600      14.11143100       0.01185862       0.00674715       0.00175821      -0.32271301       1.92466488       0.39100563      -0.33457163       1.91791773       0.38924742
O       12.69942300      13.79055100      14.41681000       0.00662314       0.01537012      -0.01235833       2.34769093      -0.25199507      -0.89601060       2.34106779      -0.26736519      -0.88365227
H       11.84160400      13.93243400      14.72144100       0.00052647      -0.00821182       0.01124593      -2.34240289       0.38852683       0.83571889      -2.34292936       0.39673865       0.82447296
H       13.26999500      14.36727800      14.93695300      -0.00088630       0.00440567       0.00677169      -0.13632365      -0.15677179       0.10128368      -0.13543735      -0.16117746       0.09451199
O       12.94696500      12.81519400      10.78446600       0.00357200       0.00990460      -0.01692148      -1.76900123       0.07090368      -1.20455189      -1.77257323       0.06099908      -1.18763041
H       13.49271400      13.58608100      10.93912800      -0.01233272      -0.01503876      -0.00304921       0.34709962       0.66087440       0.24688007       0.35943234       0.67591316       0.24992928
H       12.14326300      13.10390500      10.25030200       0.01173086      -0.00003617       0.00691629       1.33488400      -0.57501965       0.93791819       1.32315314      -0.57498348       0.93100190
27
Properties=species:S:1:pos:R:3:REF_forces:R:3:DFT_forces:R:3:FOUNDATION_forces:R:3 REF_energy=0.007020209686743328 charge=0 spin=1 external_field="0.0 0.0 0.0" config_type=ORCA_DFT source_file=C_DFTprod_cutcluster_0090.out orca_step=0 DFT_energy=-18719.666807915313 FOUNDATION_energy=-18719.673828125 pbc="F F F"
O        9.71426700      14.22345300      12.89878900       0.00257535      -0.00152269      -0.00733664      -0.98892086       0.27278414       2.48490665      -0.99149621       0.27430683       2.49224329
H        9.71080600      14.99765200      13.54896100      -0.00503929      -0.01290854       0.00324634      -0.04994538      -1.37697991      -1.38749644      -0.04490609      -1.36407137      -1.39074278
H        9.18238100      13.53604400      13.41058700       0.00575550       0.00986207       0.00220957       0.96238990       1.17762936      -1.04736230       0.95663440       1.16776729      -1.04957187
O        9.99945600      12.72715600       9.47345900      -0.02959309       0.01556594       0.00505579      -0.32210253       1.58222193       0.07281133      -0.29250944       1.56665599       0.06775554
H        9.81648600      13.71128700       9.54250900       0.01384250      -0.00909830      -0.01097486       0.08079276      -1.88943315      -0.04976900       0.06695026      -1.88033485      -0.03879414
H        9.23990000      12.24872600       9.83956200       0.00056134      -0.00582439      -0.00740524       0.13887635       0.47380036      -0.12014427       0.13831501       0.47962475      -0.11273903
O       11.83817200      11.50434600      11.11876000       0.00728398      -0.01240093       0.02934568       0.24765726       0.96504277       2.01840000       0.24037328       0.97744370       1.98905432
H       11.35023500      12.16065700      10.61379800       0.03214083      -0.00956752      -0.00648095      -0.42382695       0.05466726      -0.51489528      -0.45596778       0.06423478      -0.50841433
H       12.00000000      12.00000000      12.00000000      -0.00749106      -0.01470418      -0.02364354       0.08106062      -1.19382186      -1.55133455       0.08855168      -1.17911768      -1.52769101
O       13.39468400      13.36193900       9.11295100      -0.01131095       0.01621711      -0.00166858       1.00094293       0.59958243      -1.87701631       1.01225388       0.58336532      -1.87534773
H       12.93326300      12.73163300       8.55828400       0.00481191      -0.00917542       0.00571687      -0.25580293      -0.12296641       0.29692475      -0.26061484      -0.11379099       0.29120788
H       13.03581100      13.36347700       9.97194100      -0.00456296      -0.00758945      -0.00233185      -0.63389818      -0.46317836       1.48267210      -0.62933522      -0.45558891       1.48500395
O       12.09235300      10.78350700      15.49240200      -0.00956505       0.01931088       0.01512648      -1.43545204      -1.47056468      -2.26256751      -1.42588699      -1.48987556      -2.27769399
H       12.38103500      11.33574700      14.71791700      -0.00433126      -0.01583197      -0.00780099      -0.53173420      -0.63759681       0.99552495      -0.52740294      -0.62176484       1.00332594
H       11.48712400      10.06381200      15.04914300       0.01263895      -0.01061071      -0.01122578       1.87421026       2.11038410       1.29541937       1.86157131       2.12099481       1.30664515
O       12.17648500      13.01710000      13.46913200       0.01993005       0.01038343       0.01472385      -0.64875664      -0.53438645      -0.12365058      -0.66868669      -0.54476988      -0.13837443
H       11.41772500      13.59208400      13.27786400      -0.01279295       0.00729648       0.00283662      -0.20179099      -0.02718782       0.03352750      -0.18899804      -0.03448430       0.03069088
H       12.91344200      13.59192700      13.60095900       0.00230148      -0.00142455      -0.01018098       0.93925306       0.52040243       0.01933789       0.93695158       0.52182698       0.02951887
O       10.86576500       8.81131900      10.11822500       0.00394070      -0.01150243      -0.00624272      -1.79388082      -1.00964724      -1.01942453      -1.79782152      -0.99814481      -1.01318181
H        9.94067700       8.79380800       9.77040600      -0.02322733      -0.00106914      -0.00677670       1.11714554      -0.39267952       0.28563791       1.14037287      -0.39161038       0.29241461
H       10.90703500       9.69919000      10.42656100       0.01672117       0.02886564       0.01154038       0.70449785       1.38626200       0.77728501       0.68777668       1.35739636       0.76574463
O       15.19765100      12.17555000      11.64255200      -0.01438843       0.00248876      -0.01009296       0.29474543      -0.03609443       1.06702162       0.30913386      -0.03858319       1.07711458
H       15.49867000      12.09105000      12.57334600       0.01549970       0.00168184       0.01482612      -0.23225301      -0.05654658      -0.99356288      -0.24775271      -0.05822842      -1.00838900
H       15.18518700      11.27082700      11.29167400      -0.00646185      -0.00938213       0.00580995      -0.18811282       0.06761159      -0.06883111      -0.18165097       0.07699372      -0.07464106
O       13.88164700       9.84987100      10.22003900       0.00701588       0.01006856       0.00101727      -0.12130388       0.28315263      -1.35104066      -0.12831976       0.27308407      -1.35205793
H       13.91868200       9.58704800       9.25910000      -0.00334014      -0.00792739      -0.00212293      -0.20904058       0.54451963       1.65538973      -0.20570044       0.55244702       1.65751266
H       13.20344300      10.57036000      10.31026500      -0.01291511       0.01879899       0.00283009       0.59524992      -0.82697745      -0.11776337       0.60816503      -0.84577644      -0.12059346
27
Properties=species:S:1:pos:R:3:REF_forces:R:3:DFT_forces:R:3:FOUNDATION_forces:R:3 REF_energy=-0.01781266604666598 charge=0 spin=1 external_field="0.0 0.0 0.0" config_type=ORCA_DFT source_file=C_DFTprod_cutcluster_0091.out orca_step=0 DFT_energy=-18720.129140791047 FOUNDATION_energy=-18720.111328125 pbc="F F F"
O       15.10375900      10.01266100      13.64782900      -0.00114696       0.00901937      -0.00174579       0.82991190       2.28571844      -0.41694915       0.83105886       2.27669907      -0.41520336
H       15.91098500       9.49806200      13.77377400       0.00029061       0.00171438       0.00257651      -0.18358845       0.02620175      -0.02428968      -0.18387906       0.02448737      -0.02686619
H       15.43977800      10.95233400      13.44743800      -0.00917950      -0.00756695      -0.00377900      -0.74195024      -2.24066927       0.41931328      -0.73277074      -2.23310232       0.42309228
O       14.08553600      16.34667300      11.45741000       0.00624297       0.01702158       0.00941061       0.02399657      -0.56529446      -1.23020924       0.01775360      -0.58231604      -1.23961985
H       14.02525500      15.43858700      11.77624100      -0.00472716      -0.01437791      -0.00495714      -0.09416836       0.15010544       0.70445949      -0.08944120       0.16448335       0.70941663
H       14.06723700      16.17440800      10.49582600      -0.00183307      -0.01185511      -0.00159980       0.03204767       0.56986912       0.48801686       0.03388074       0.58172423       0.48961666
O       14.18452700      10.36983300       9.48382000       0.01133086       0.00647627       0.00213072       1.76190509       0.58780359      -2.56333235       1.75057423       0.58132732      -2.56546307
H       13.94556300      11.06260300      10.08158000       0.01035991       0.00041965       0.00142050      -0.35469240       0.81659559       0.63060886      -0.36505231       0.81617594       0.62918836
H       14.68485200      10.87212800       8.73533800      -0.01755468      -0.00285812       0.00046485      -1.50069312      -1.39658781       2.01396721      -1.48313844      -1.39372969       2.01350236
O       11.88821500      13.10431200      15.16931800       0.00187589       0.00173270      -0.00488141      -0.85941433      -0.88589186       0.54526469      -0.86129022      -0.88762456       0.55014610
H       11.35970800      13.05660200      15.99319100       0.00519850      -0.00240251       0.00096211       0.56385448       0.30573211      -0.65475723       0.55865598       0.30813462      -0.65571934
H       11.69805300      12.23163400      14.75076800       0.00197619       0.00134641      -0.00140784       0.42866793       0.53112346       0.05250759       0.42669174       0.52977705       0.05391543
O       12.41367800      12.77153000      11.56088400      -0.01692054      -0.01058674      -0.01141649      -0.32936713      -1.11117590      -0.66468220      -0.31244659      -1.10058916      -0.65326571
H       12.52245000      13.50705200      12.16937900       0.00542609       0.00603335       0.00346577       0.05196529      -0.10319452       0.55241960       0.04653920      -0.10922787       0.54895383
H       12.00000000      12.00000000      12.00000000       0.00526591       0.00030573      -0.00588976       0.44558229       0.92780270       0.28530218       0.44031638       0.92749697       0.29119194
O       11.71584900      12.66989200       8.85240900       0.01555273      -0.00493287      -0.00702004      -0.32522622       0.20705640      -0.47888569      -0.34077895       0.21198927      -0.47186565
H       11.83786700      12.62605700       9.81622900      -0.00456075       0.00681458      -0.01067738      -0.14250289       0.52845214      -0.15297396      -0.13794214       0.52163756      -0.14229658
H       11.09866800      13.39561300       8.64369800      -0.00552660       0.00092208       0.01907050       0.49315459      -0.56228364       0.48608061       0.49868119      -0.56320572       0.46701011
O       11.98657600       8.24850000      11.81395800       0.00049232      -0.00124241       0.00105095      -0.01137497       0.20436652      -0.29721641      -0.01186729       0.20560893      -0.29826736
H       11.82968400       7.31161300      11.90122800      -0.00054862       0.00167171       0.00882465      -0.13914462      -0.45252000       0.44546417      -0.13859600      -0.45419171       0.43663952
H       12.12045600       8.32520000      10.86331400       0.00183413       0.00267945      -0.01024278       0.15824041       0.45492635      -0.10032106       0.15640628       0.45224690      -0.09007828
O       13.79839300      14.37749000      13.51943000       0.00532619      -0.00274812       0.00695846      -0.42965677       0.12021117       0.13147769      -0.43498296       0.12295929       0.12451923
H       13.25934400      14.12240900      14.29739400      -0.01640786       0.00758755       0.00201847       0.26910402      -0.08333126      -0.30622263       0.28551188      -0.09091881      -0.30824110
H       14.62243100      13.89140700      13.55182600       0.01092387       0.00799418      -0.00533061       0.06163372      -0.13761234       0.24820573       0.05070985      -0.14560652       0.25353634
O       12.13561700      10.57478300      13.79272100      -0.01190697      -0.00504212       0.00795997      -1.69313275      -1.23184673      -1.72865938      -1.68122578      -1.22680461      -1.73661935
H       11.80008500       9.88638800      13.12773000      -0.00129288       0.00661787      -0.00120626       0.28220034       1.16263350       1.30016603       0.28349322       1.15601563       1.30137229
H       13.05225500      10.33993500      13.78019000       0.00950952      -0.01474416       0.00383979       1.40264805      -0.10819049       0.31524494       1.39313853      -0.09344633       0.31140515
27
Properties=species:S:1:pos:R:3:REF_forces:R:3:DFT_forces:R:3:FOUNDATION_forces:R:3 REF_energy=0.010231186857708963 charge=0 spin=1 external_field="0.0 0.0 0.0" config_type=ORCA_DFT source_file=C_DFTprod_cutcluster_0092.out orca_step=0 DFT_energy=-18718.661643813142 FOUNDATION_energy=-18718.671875 pbc="F F F"
O       11.07578200      12.18143100      12.33928900       0.01411483       0.00485496      -0.01036339       1.92662570      -0.59795220      -0.51763057       1.91251087      -0.60280716      -0.50726718
H       12.00000000      12.00000000      12.00000000       0.00116403      -0.00387487      -0.01744182      -1.59443956       0.15310293       0.59019857      -1.59560359       0.15697780       0.60764039
H       10.82369900      12.96861900      11.86017900      -0.00392701       0.00488059       0.01525800      -0.14642696       0.36277641      -0.26241149      -0.14249995       0.35789582      -0.27766949
O       13.07746600       7.52371000      13.39514200       0.00247315       0.00228602      -0.00948531      -0.08523640       0.08003989      -0.14052427      -0.08770955       0.07775387      -0.13103896
H       13.92060600       7.68228100      13.85098100      -0.00316337       0.00347889       0.00546069      -0.81027988       0.35548065      -0.12653757      -0.80711651       0.35200176      -0.13199826
H       12.44712600       8.25986200      13.52677100      -0.00232359      -0.00649451       0.00548930       0.86301259      -0.45781128       0.38823892       0.86533618      -0.45131677       0.38274962
O       13.16672900      13.91944500       8.93653300       0.00021042       0.00573669      -0.00193378      -2.68228136       1.41151867      -1.91394636      -2.68249178       1.40578198      -1.91201258
H       13.40290100      14.64143400       8.32270100      -0.00404084      -0.00106588       0.00747806      -0.26250708      -0.57090810       0.43248859      -0.25846624      -0.56984222       0.42501053
H       13.94616700      13.70859100       9.35183000       0.00116872      -0.00560027      -0.01019968       2.92752837      -0.87582749       1.51522063       2.92635965      -0.87022722       1.52542031
O        9.33154100      13.76635600      17.21896300      -0.00077979      -0.00509055      -0.00571670       0.84364118      -2.76828225      -2.17359890       0.84442097      -2.76319170      -2.16788220
H        9.69591800      13.18099200      16.44314200      -0.00455976       0.00480279       0.00263181      -1.43805194       1.22379681       2.08202591      -1.43349218       1.21899402       2.07939410
H        9.75584700      14.56935400      16.98575800       0.00436252      -0.00111734      -0.00025949       0.49524814       1.53910232       0.00964200       0.49088562       1.54021966       0.00990149
O       10.79652100       8.12588900       8.99590000       0.00805196      -0.01429907      -0.00831308      -2.94554702       1.18038949      -0.27550401      -2.95359898       1.19468856      -0.26719093
H       10.12744900       8.88289400       8.86582200      -0.01281437      -0.00243981      -0.00456068       1.94108132      -0.55821724       0.18565495       1.95389569      -0.55577743       0.19021563
H       10.06043600       7.49002800       9.09472200       0.00996035       0.01448285       0.01164334       1.03612154      -0.56137491       0.13465475       1.02616119      -0.57585776       0.12301141
O       13.71423400      10.27125200       7.27479500       0.00435877      -0.00041970      -0.00164361      -0.50588500       0.27986748       0.45920955      -0.51024377       0.28028718       0.46085316
H       13.15595500      10.57568300       6.56207000       0.00242416       0.00648325       0.00000319       0.10831873       0.02677588      -0.80984130       0.10589457       0.02029263      -0.80984449
H       13.08985100      10.43582300       7.99544400      -0.00807211      -0.00978906       0.00419185       0.40530935      -0.31938688       0.35417545       0.41338146      -0.30959782       0.34998360
O       11.24335200       9.77670300      15.04161000       0.00636541      -0.01726175      -0.01115791       0.29673644       0.34044509       0.74655827       0.29037103       0.35770684       0.75771618
H       11.36628000      10.55044500      14.46528600      -0.00587744      -0.00540761       0.01912342      -0.05816931      -0.18032346       0.67769651      -0.05229187      -0.17491585       0.65857309
H       11.41567600      10.03767700      15.98380100      -0.00169538       0.01538452      -0.00225907      -0.21325143      -0.10219925      -1.56349021      -0.21155605      -0.11758377      -1.56123114
O        8.96290100      12.67027600      14.13407300       0.00460172       0.00203842      -0.00365002       1.20006275       0.29588026      -1.13106174       1.19546103       0.29384184      -1.12741172
H        9.61719400      12.11992500      13.61501700      -0.01298466      -0.00965377       0.00995029      -1.00525698       0.81128672       0.81472136      -0.99227232       0.82094049       0.80477107
H        9.09873300      13.57206100      13.75387300      -0.00290076       0.01316735       0.00282481      -0.26756958      -1.05386642       0.55897119      -0.26466882      -1.06703377       0.55614638
O        9.02632000      10.46006700       8.65592500       0.00228218       0.01459477       0.01168404      -2.06486555       1.20418022       0.83120141      -2.06714773       1.18958545       0.81951737
H        8.56178000      10.97829800       9.40804200       0.00023822      -0.01200159      -0.01256987       1.13636510      -1.37927909      -1.92483755       1.13612688      -1.36727750      -1.91226768
H        8.34622500      10.39217900       7.93555200       0.00136273       0.00232464       0.00381632       0.89971684       0.16078570       1.05872591       0.89835411       0.15846106       1.05490959
27
Properties=species:S:1:pos:R:3:REF_forces:R:3:DFT_forces:R:3:FOUNDATION_forces:R:3 REF_energy=0.014699763923999853 charge=0 spin=1 external_field="0.0 0.0 0.0" config_type=ORCA_DFT source_file=C_DFTprod_cutcluster_0093.out orca_step=0 DFT_energy=-18719.791940861076 FOUNDATION_energy=-18719.806640625 pbc="F F F"
O       12.66085000      12.52856900      11.41071900       0.00429804       0.03258878      -0.01853251      -2.92748564      -0.19753155       1.60201455      -2.93178368      -0.23012033       1.62054706
H       12.07485800      13.31878200      11.28490300       0.02362640      -0.01270842       0.00535758       0.92538293      -0.39484614      -0.53419547       0.90175653      -0.38213772      -0.53955305
H       12.00000000      12.00000000      12.00000000       0.01476723      -0.00840380       0.01347999       1.84868306       0.56269846      -1.34986253       1.83391583       0.57110226      -1.36334252
O       12.13606300      11.24961100      14.02982700      -0.00610881       0.00310310       0.00458516      -0.18556126      -1.56256477      -0.43556471      -0.17945245      -1.56566787      -0.44014987
H       12.31060400      12.12876900      14.29394500       0.01163459      -0.01583979      -0.00910542       0.32532937       1.53250482       0.50131234       0.31369478       1.54834461       0.51041776
H       12.99714300      10.81355600      14.08313600      -0.00040250       0.00914837       0.00341584      -0.15894026       0.02111621      -0.06223433      -0.15853776       0.01196784      -0.06565017
O       10.54922600      14.34537000      10.54046000      -0.00723840       0.00602753      -0.01506962       0.87734793       0.93750800       0.11896367       0.88458633       0.93148047       0.13403329
H       10.08406700      13.63445500      10.97108800      -0.00525079       0.00175754       0.00253871      -0.73933301      -0.40522029       0.42456013      -0.73408222      -0.40697783       0.42202142
H       10.62609600      15.07251700      11.18617900       0.00145280       0.00782832       0.00428311      -0.25976551      -0.49204758      -0.43284222      -0.26121831      -0.49987590      -0.43712533
O        8.69376500      12.82870900      12.41275300       0.00069349      -0.01442346      -0.00540934       0.83349710       0.47446355       0.89598890       0.83280361       0.48888701       0.90139824
H        7.81910500      13.03856400      12.11551100      -0.00554658       0.00597275      -0.00169812      -0.87575210       0.05923478      -0.48768879      -0.87020552       0.05326203      -0.48599067
H        8.81776100      13.43796700      13.16733500       0.00096325      -0.00020795       0.00428511       0.02978032      -0.57235913      -0.42030300       0.02881707      -0.57215118      -0.42458811
O       10.32411700      10.66295900      11.26637300       0.00419480      -0.02078955      -0.05004894      -0.42952883      -0.69297437       2.02730764      -0.43372363      -0.67218482       2.07735658
H        9.58882900      10.95422600      11.84009400      -0.00484521      -0.00125936       0.01048675       0.19725921       0.37003386      -0.44557956       0.20210442       0.37129322      -0.45606631
H       10.62643900       9.89562700      11.79786900      -0.00503142       0.01079875       0.00793253       0.20361035       0.33579695      -0.86350496       0.20864177       0.32499820      -0.87143749
O       15.31788800      11.85504200      11.63902000      -0.03200154       0.00001641       0.01343198      -2.12850241      -1.18224315       0.31490283      -2.09650087      -1.18225956       0.30147085
H       15.39641900      10.88937300      11.81719900       0.00567957       0.00518573      -0.01409993       0.20815118       0.98596311      -0.33295069       0.20247161       0.98077738      -0.31885076
H       14.29887100      11.94730800      11.59022200       0.01672183      -0.00264797       0.01292990       2.20576201       0.23498630      -0.02449531       2.18904018       0.23763427      -0.03742521
O       12.93322100       9.96845600       9.70721100       0.00764536       0.00964557      -0.00800547       0.49514653      -1.98034598      -0.07410043       0.48750117      -1.98999155      -0.06609496
H       13.49766700      10.13657700       8.94739600      -0.00350338      -0.01339486       0.00674284      -0.21801537       0.43187008       0.11169444      -0.21451199       0.44526494       0.10495160
H       12.64277900      10.79016300      10.05034000      -0.00533987      -0.00811302       0.01435121      -0.27677871       1.43522645       0.13301166      -0.27143884       1.44333947       0.11866045
O       10.04765700      11.11977200       8.66364100       0.00128944       0.01209615       0.01245662      -0.59419762      -0.12423273       0.98132654      -0.59548706      -0.13632888       0.96886992
H        9.95446800      10.90911300       9.63449300       0.00068109      -0.00150210       0.02249378       0.39398323       0.10861477      -1.54307133       0.39330214       0.11011687      -1.56556511
H       10.62887600      11.88189000       8.64387200      -0.00940437       0.00492162      -0.01819698       0.17113470       0.09697631      -0.10858926       0.18053907       0.09205469      -0.09039228
O       13.79961000      12.52335700       8.42071800       0.00508467       0.00020957      -0.00439080      -0.97922369       0.11893538      -0.16283348      -0.98430836       0.11872581      -0.15844268
H       13.47631800      12.94991000       9.22537500      -0.01461580      -0.01419428      -0.00056836       0.21354309      -0.17100306      -0.07486323       0.22815889      -0.15680878      -0.07429487
H       14.74375400      12.52129300       8.48410900       0.00055631       0.00418462       0.00635403       0.84447350       0.06943969       0.24159655       0.84391719       0.06525507       0.23524252
27
Properties=species:S:1:pos:R:3:REF_forces:R:3:DFT_forces:R:3:FOUNDATION_forces:R:3 REF_energy=-0.006945276672922773 charge=0 spin=1 external_field="0.0 0.0 0.0" config_type=ORCA_DFT source_file=C_DFTprod_cutcluster_0094.out orca_step=0 DFT_energy=-18719.758898401673 FOUNDATION_energy=-18719.751953125 pbc="F F F"
O       10.31161900      12.16092300      10.85139800       0.01276967       0.01982923       0.01931014       0.60655305      -2.32760243      -0.62304781       0.59378338      -2.34743166      -0.64235795
H        9.88090200      11.38044300      11.27219900      -0.01360089      -0.03129374       0.00161398       0.00688459       0.55046947      -0.17636427       0.02048548       0.58176321      -0.17797825
H       10.09323200      12.95042900      11.29646300       0.00608327       0.02381149      -0.03127791      -0.61101500       1.36213353       0.68457828      -0.61709827       1.33832204       0.71585619
O       12.15730100       9.87339800      10.22363000      -0.01421839      -0.01152745      -0.00774076       0.08257762      -0.14559171      -0.11483900       0.09679601      -0.13406426      -0.10709824
H       11.55653100       9.53042100       9.52396500       0.00727848       0.00590453      -0.00866213       0.42303140       1.03151438       0.91432688       0.41575292       1.02560985       0.92298901
H       11.86582100      10.73527600      10.59199300       0.00954958      -0.00977760      -0.00153841      -0.38073392      -0.98822265      -1.06489815      -0.39028350      -0.97844505      -1.06335974
O       10.95594800      14.29992600      13.52212300      -0.01088461      -0.00397172       0.00163395       1.61096147       0.19176564      -0.86428940       1.62184608       0.19573736      -0.86592335
H       11.46459400      14.88760900      14.08902000      -0.00908133       0.01272964      -0.01839364      -0.24604302       0.05559404       0.17721906      -0.23696169       0.04286440       0.19561270
H       10.11928600      14.13680700      13.90130700       0.01394668      -0.00781640       0.01528163      -1.46233961      -0.09658411       0.91665198      -1.47628629      -0.08876771       0.90137035
O        9.44102700       9.38311700      11.80331400       0.02111427      -0.01670608      -0.01133253       0.04536856       0.62830248       0.28955514       0.02425429       0.64500856       0.30088767
H       10.21194600       8.97309700      12.22619900       0.00370508       0.00319588       0.01150284       0.17662693       0.11457361       0.07847738       0.17292185       0.11137773       0.06697454
H        9.08772300       8.76112400      11.17437600      -0.02381219       0.00656874      -0.00224146      -0.10715613      -0.33411380      -0.22219743      -0.08334394      -0.34068254      -0.21995597
O       12.42504300      11.97793800      12.93023700       0.00610569      -0.00789062       0.02324321      -0.40131185      -0.74252287      -2.92812965      -0.40741754      -0.73463225      -2.95137286
H       11.99512000      12.76058600      13.22513700       0.00108193      -0.00611288      -0.02122837      -0.45110775       1.23508709       1.15923280      -0.45218968       1.24119997       1.18046117
H       12.00000000      12.00000000      12.00000000      -0.00290682       0.01664293       0.02847970       0.99919710      -0.39078411       1.78860486       1.00210392      -0.40742704       1.76012516
O       10.68909400      10.84742500      15.36123100      -0.01306074       0.00411791       0.01361194       0.24329276       0.61260975       0.31243035       0.25635350       0.60849184       0.29881841
H       10.31002000      11.03645500      14.46952600       0.00430008       0.00084308      -0.01598751       1.23296531       0.16800577       1.10705519       1.22866523       0.16716269       1.12304270
H       11.44758300      11.42864600      15.65386200       0.01212668      -0.00570699      -0.00915997      -1.49102927      -0.81834337      -1.35545628      -1.50315595      -0.81263638      -1.34629631
O       12.10415600       9.15797800      13.13072400      -0.00015450      -0.00423930       0.00720927       0.51651394       0.64103731      -0.53014562       0.51666844       0.64527661      -0.53735489
H       12.48844300       9.02681000      12.25043200      -0.00092815      -0.00101596       0.00257363      -0.16260280      -0.43748614      -0.09018088      -0.16167465      -0.43647018      -0.09275451
H       12.40681100      10.08443200      13.25787000      -0.00065211       0.01383529      -0.00438612      -0.56213776      -0.43771281       0.49539829      -0.56148565      -0.45154810       0.49978441
O       12.18688600      12.14180000       7.48345500       0.00252179       0.00805999       0.00049417       1.23718182      -0.38174318      -0.68255086       1.23466003      -0.38980317      -0.68304503
H       13.15108600      12.02734800       7.63546600       0.00050242      -0.00541023      -0.00154824      -1.09131186       0.12042884      -0.00534054      -1.09181428       0.12583907      -0.00379230
H       11.81898000      12.45898800       8.29805200      -0.00731742       0.00241624       0.00189027      -0.22854337       0.23934411       0.75002309      -0.22122595       0.23692787       0.74813282
O       11.26106300      14.97831700      10.73712900      -0.00163975       0.01468832       0.02338732      -0.92864731      -0.60475724       2.18581308      -0.92700756      -0.61944556       2.16242576
H       12.16689900      15.07665900      10.49194200       0.00078836      -0.01396610      -0.01609193       0.97246662       0.09551526      -0.33199017       0.97167826       0.10948136      -0.31589824
H       11.28437100      14.73845500      11.72007000      -0.00361714      -0.00720832      -0.00064292      -0.02964148       0.65908316      -1.86993637      -0.02602434       0.66629148      -1.86929345
27
Properties=species:S:1:pos:R:3:REF_forces:R:3:DFT_forces:R:3:FOUNDATION_forces:R:3 REF_energy=0.021504676675249357 charge=0 spin=1 external_field="0.0 0.0 0.0" config_type=ORCA_DFT source_file=C_DFTprod_cutcluster_0095.out orca_step=0 DFT_energy=-18719.427714073325 FOUNDATION_energy=-18719.44921875 pbc="F F F"
O        9.46521800      10.72971300      13.65473900       0.00381215      -0.01468402       0.00697948      -0.18327977      -1.52580339      -0.74794857      -0.18709192      -1.51111937      -0.75492805
H        9.46992600      11.49813400      13.11815600      -0.00034525       0.00401183      -0.01234262       0.06691600       1.00654336      -0.85038297       0.06726125       1.00253153      -0.83804035
H        9.53236700      11.04433000      14.52932700      -0.00724848       0.00706846       0.00912642       0.10547787       0.51429642       1.67448711       0.11272635       0.50722796       1.66536069
O       12.60096800      11.25621500      12.33048600      -0.05762882      -0.03304118      -0.00781277      -0.72140558       2.01663905      -0.84132770      -0.66377676       2.04968023      -0.83351493
H       12.00000000      12.00000000      12.00000000       0.02207782      -0.02684440       0.01422189       1.30045035      -1.34099783       0.89796232       1.27837253      -1.31415343       0.88374043
H       13.23217400      11.57595900      13.00701300       0.01780916       0.04506232      -0.02082308      -0.55529415       0.09251277      -0.08238571      -0.57310331       0.04745045      -0.06156263
O       15.31886000      12.73828100      11.44977200       0.00437666       0.00400240      -0.02086860      -0.63681911      -0.56862085       0.00317506      -0.64119577      -0.57262325       0.02404366
H       14.76804300      13.52241900      11.45172300       0.00014115      -0.01154391       0.01531093       0.10463372       0.40045043       0.00880608       0.10449257       0.41199434      -0.00650485
H       14.64092900      12.03953700      11.36622100      -0.00401786       0.00845738       0.01736167       0.45985922       0.09058876       0.00801459       0.46387708       0.08213138      -0.00934708
O        8.83205000      11.38349900       9.93183900      -0.03348440       0.02498587       0.00984661      -0.55935711      -0.72580926       0.06410794      -0.52587271      -0.75079513       0.05426133
H        9.12245700      12.11121400      10.49668700       0.02563227       0.00085904       0.01708001       0.11532406      -0.41215481       0.07219787       0.08969179      -0.41301385       0.05511786
H        8.69754800      10.56274000      10.45940500       0.00250873      -0.02626923       0.01022924       0.31182516       1.02352056      -0.23276517       0.30931643       1.04978979      -0.24299441
O       11.18131000      10.35717500       9.03574000      -0.01655740       0.01858523      -0.00680415       1.55664259      -0.48347727      -0.59092949       1.57319999      -0.50206250      -0.58412534
H       11.92495600      10.97309300       9.02029000       0.00899528      -0.00053020       0.01079700      -0.30583917      -0.08647315      -0.10784868      -0.31483445      -0.08594295      -0.11864568
H       10.37500000      10.85554800       9.07720500       0.03152842      -0.00609565      -0.00824895      -0.97417563       0.70136398       0.22397833      -1.00570405       0.70745963       0.23222728
O       10.46792300      13.41940900      11.09330400      -0.00060900       0.01107730      -0.01658766      -0.24017545      -0.40787588       0.60998388      -0.23956645      -0.41895318       0.62657154
H        9.90571400      13.89475000      11.73082600      -0.00854681      -0.00486761      -0.01020309       0.63503512       0.25683970      -0.61352244       0.64358193       0.26170731      -0.60331935
H       10.97836700      14.02219800      10.54306100       0.00464273       0.00168978       0.00281270      -0.34450826       0.30550467       0.21405803      -0.34915099       0.30381489       0.21124533
O       12.64475700       8.84712200      14.78228000       0.01742651      -0.02070779       0.03238699       2.07414867       0.73630708      -0.53134432       2.05672216       0.75701487      -0.56373131
H       12.79275400       9.75998900      14.44100600      -0.01648000       0.01207722      -0.01292283      -0.75066093      -1.13062059       0.59720051      -0.73418093      -1.14269781       0.61012334
H       11.75848400       8.68752500      15.03154100      -0.00169685       0.00774206      -0.01949635      -1.44560661       0.21262269       0.03862733      -1.44390976       0.20488063       0.05812368
O       11.39755800       9.10432500      11.42488900      -0.04154425      -0.01938983      -0.02257939      -0.30310660      -0.32293799       0.81014089      -0.26156235      -0.30354816       0.83272028
H       11.44739400       9.52244100      10.55642400       0.01704385      -0.01473673       0.00407419      -0.02707130       0.12459485       0.06826285      -0.04411515       0.13933158       0.06418866
H       11.62591700       9.77896700      12.09625300       0.01806595       0.03320879      -0.00016147      -0.08516584      -0.68016040      -0.80241847      -0.10323179      -0.71336919      -0.80225700
O       14.20033700      11.16888700      14.43739100       0.00177130      -0.00614744       0.00812075       1.27386889       1.21477861       0.49734781       1.27209759       1.22092605       0.48922706
H       14.59966600      11.93842700      14.90871600       0.00249886       0.00004865      -0.00400751      -0.65524471      -0.77370917      -0.36286753      -0.65774357      -0.77375782      -0.35886002
H       14.98832600      10.76085600      14.04839700       0.00982783       0.00598193       0.00451067      -0.21647158      -0.23792224      -0.02460952      -0.22629941      -0.24390417      -0.02912019
27
Properties=species:S:1:pos:R:3:REF_forces:R:3:DFT_forces:R:3:FOUNDATION_forces:R:3 REF_energy=0.0201705443469109 charge=0 spin=1 external_field="0.0 0.0 0.0" config_type=ORCA_DFT source_file=C_DFTprod_cutcluster_0096.out orca_step=0 DFT_energy=-18719.386079455653 FOUNDATION_energy=-18719.40625 pbc="F F F"
O       12.00000000      12.00000000      12.00000000       0.03108356      -0.02109788      -0.02569241       1.59906492       0.27391075       2.72378951       1.56798136       0.29500863       2.74948192
H       12.21101300      12.57645900      12.80419100      -0.00848598      -0.00445898       0.00198030      -0.82232828      -0.99180122      -2.04731155      -0.81384230      -0.98734224      -2.04929185
H       11.25374600      12.33693100      11.53627200      -0.02226147       0.01667090       0.01410894      -0.80220970       0.71229883      -0.23674627      -0.77994823       0.69562793      -0.25085521
O       13.33596900      10.94135700       9.98622400       0.01597585      -0.01919596      -0.02213355      -0.04622067       0.58826901       2.17732386      -0.06219652       0.60746497       2.19945741
H       13.96007400      11.68828600       9.86496400      -0.01866251       0.00279357      -0.01870336       0.39065185      -0.37058372      -0.91339197       0.40931436      -0.37337729      -0.89468861
H       13.15813900      11.14281200      10.96068300       0.00581185      -0.00904443       0.01628441      -0.43022170      -0.78890373      -1.63279014      -0.43603355      -0.77985930      -1.64907455
O       14.09081000      15.27660600      13.70163100       0.00752946       0.02141776       0.01052425      -0.38232199      -0.02166443       0.46538529      -0.38985145      -0.04308219       0.45486104
H       14.93729700      15.01416800      14.08320200      -0.01799821      -0.01453555      -0.00258228      -0.25516077       0.04124780       0.23204100      -0.23716256       0.05578335       0.23462328
H       13.43927500      15.34814700      14.42550800       0.01301513       0.00603325       0.00605178       0.76765464      -0.09967124      -0.42146349       0.75463951      -0.10570449      -0.42751527
O       11.97670100      12.05077100       7.70315600      -0.02662145       0.02332809      -0.00625410      -2.41897904      -0.28302068      -4.22401562      -2.39235759      -0.30634877      -4.21776152
H       12.19421000      11.97987900       8.59008900       0.02807450      -0.00714631       0.02002615       0.30222934      -1.06283088       2.77526588       0.27415484      -1.05568457       2.75523973
H       11.19455900      11.46801200       7.41553700      -0.00055426      -0.01454023      -0.00764716       2.08442146       1.24831089       1.35674250       2.08497572       1.26285112       1.36438966
O       11.43608800      14.81562800      11.95633000      -0.00043656      -0.01928171      -0.00800680      -0.73114194       0.11529938      -0.34769781      -0.73070538       0.13458109      -0.33969101
H       10.81032300      15.01859100      11.24918400       0.00199752       0.01115360       0.00138062       0.03691585      -0.33534253      -0.32958064       0.03491833      -0.34649613      -0.33096126
H       11.17897200      15.49052000      12.58083800      -0.00950695       0.01136617      -0.00535580       0.20153054       0.35114772       0.66096202       0.21103749       0.33978155       0.66631782
O       15.06005000      12.90258500       9.70093100       0.00385385       0.00548347       0.00112292      -1.84295542       0.86910590      -1.00534240      -1.84680927       0.86362243      -1.00646532
H       14.48992600      13.54949300      10.16577800       0.00261270       0.00039032       0.00450008       0.28195043       0.42806151      -0.43742300       0.27933773       0.42767119      -0.44192308
H       15.71479500      12.72276000      10.32563200      -0.00474473       0.00587219       0.00519023       1.91311769      -0.56816638       1.47497592       1.91786242      -0.57403857       1.46978569
O       13.91783600      15.36855400      10.87248600      -0.00644996       0.00592169      -0.00954434      -0.98393395      -0.60959092      -0.24336306      -0.97748399      -0.61551261      -0.23381872
H       14.31039600      15.28748700      11.74379900      -0.00029669      -0.00848435      -0.00569813       0.11859075       0.20617662       0.29649578       0.11888744       0.21466097       0.30219391
H       12.97058100      15.16535900      11.08977100       0.01224726       0.00150128       0.00676737       1.09362596       0.32046505      -0.23065070       1.08137870       0.31896377      -0.23741807
O       12.86849000       8.47057700       8.77102900       0.00663082       0.01538720       0.00400944       1.42365186      -1.40005217       0.61969818       1.41702104      -1.41543937       0.61568874
H       13.09409800       9.36038700       9.13252800      -0.01015736      -0.01100042       0.00128296       0.21118884      -0.75440785      -0.02482493       0.22134620      -0.74340743      -0.02610789
H       13.57297900       7.79198100       9.06029300      -0.00453656       0.00485179       0.00154611      -1.66000979       2.08638856      -0.60345117      -1.65547323       2.08153677      -0.60499728
O       15.00291400      10.29005300      13.28707600       0.00666224      -0.01562445       0.00264986      -1.48182333      -0.75627010       0.65640094      -1.48848557      -0.74064565       0.65375108
H       14.87356700       9.83772400      12.43942800      -0.00792133       0.01804987       0.01609610       0.10912513       0.17433119       0.12620801       0.11704646       0.15628132       0.11011191
H       14.24113800       9.93984600      13.83278300       0.00313893      -0.00581090      -0.00190413       1.32358745       0.62729265      -0.86723614       1.32044852       0.63310355      -0.86533201
27
Properties=species:S:1:pos:R:3:REF_forces:R:3:DFT_forces:R:3:FOUNDATION_forces:R:3 REF_energy=0.030278534683020553 charge=0 spin=1 external_field="0.0 0.0 0.0" config_type=ORCA_DFT source_file=C_DFTprod_cutcluster_0098.out orca_step=0 DFT_energy=-18719.569330840317 FOUNDATION_energy=-18719.599609375 pbc="F F F"
O       12.36963700      14.16203000       8.06763500      -0.01247774      -0.00103643       0.01842760      -0.42787407      -1.33633652      -0.91881932      -0.41539633      -1.33530009      -0.93724692
H       11.60293300      14.08836500       7.46296200      -0.00357139       0.00182765      -0.01469313       0.50820655       0.33850103       0.41710598       0.51177794       0.33667338       0.43179911
H       12.80848700      13.28880600       7.94146200       0.01662014      -0.00913631      -0.00376385      -0.10688354       1.14738346       0.34619418      -0.12350368       1.15651977       0.34995803
O       10.60063100      12.56942100      10.27023200       0.02106061      -0.00489721      -0.01270652      -0.45488331       0.10552436       0.09468695      -0.47594392       0.11042157       0.10739347
H       10.82256700      12.08549800       9.46987100       0.00183664       0.01162313       0.01758379       0.33450456      -0.24655513      -0.10624293       0.33266792      -0.25817826      -0.12382672
H        9.85894600      13.12391400      10.00487700      -0.00614340      -0.00179592       0.00655841       0.01797011       0.24744026       0.23679008       0.02411351       0.24923618       0.23023167
O       11.69949200      10.68207000       8.54933700      -0.01633990       0.01048773      -0.03602380      -0.39774460       0.20632554      -0.05940611      -0.38140470       0.19583781      -0.02338231
H       11.05177600      10.05401200       8.19986300       0.00094672       0.00336114       0.00100901       0.28115072       0.24461945      -0.27803073       0.28020400       0.24125831      -0.27903974
H       12.17512300      11.10694300       7.82845100       0.01115876       0.00962468       0.00484474      -0.20638663      -0.34558720      -0.33268206      -0.21754539      -0.35521188      -0.33752680
O        8.35187300      10.67830500      11.00206200       0.00068071      -0.00955641      -0.01501611      -0.92217985       2.38057292      -0.85063818      -0.92286056       2.39012933      -0.83562207
H        8.77563200       9.87082000      11.13421100      -0.00649116      -0.00825489       0.00739478       0.91902974      -2.33689559       0.63901215       0.92552090      -2.32864070       0.63161737
H        9.09177700      11.22010300      10.68848400      -0.00361088       0.00946782       0.00300141      -0.21915874       0.20739327       0.30118455      -0.21554786       0.19792545       0.29818314
O       10.20505200       8.73525600      11.42033900      -0.01970342       0.00712700       0.02488171       0.72504410      -0.77058451      -1.15564169       0.74474752      -0.77771151      -1.18052340
H       10.21912100       7.97529300      12.00516700       0.01150485       0.00114549      -0.00201377      -0.11239805      -0.07471158       0.42749545      -0.12390290      -0.07585707       0.42950922
H       10.51513800       8.33919500      10.57487400       0.01144980      -0.01503022      -0.00956785      -0.33713315       0.49909286       0.74513871      -0.34858295       0.51412308       0.75470656
O       12.54547300      16.37921400      13.22679500       0.00030941      -0.00435502      -0.01564748       0.23789057       0.87422877      -0.86841525       0.23758116       0.87858379      -0.85276777
H       12.34473200      15.57169000      13.66264800      -0.00125056       0.00453135       0.00757554      -0.27327409      -1.03907445       0.74793026      -0.27202353      -1.04360580       0.74035472
H       12.74556800      16.07452000      12.32745900       0.00320050      -0.00438544      -0.00360768       0.08388466       0.03778586       0.03274516       0.08068416       0.04217130       0.03635284
O       12.91544600      12.16673500      12.37244800       0.01612273      -0.01467983      -0.02332392      -0.79739001      -1.76725427      -1.00979688      -0.81351274      -1.75257444      -0.98647296
H       13.44547800      11.40733900      11.99992900      -0.01392126       0.01803848       0.01978596      -0.71950394       1.10148474       0.47382673      -0.70558268       1.08344626       0.45404077
H       12.00000000      12.00000000      12.00000000      -0.00178740      -0.00089216       0.00780431       1.34933844       0.26983601       0.61544768       1.35112584       0.27072817       0.60764337
O       13.15167600      14.37705700      10.84581900       0.00688362       0.01444915       0.01168152      -1.03013873       0.82966903      -1.31559924      -1.03702235       0.81521988      -1.32728076
H       12.38232600      14.24325400      10.23752700      -0.00964263      -0.00049038       0.00450115       1.05101296       0.30107610       0.61727564       1.06065559       0.30156648       0.61277449
H       13.10185000      13.61639900      11.41975400      -0.00150976      -0.00251270      -0.00449593       0.18163524      -0.65343887       0.65300857       0.18314500      -0.65092617       0.65750450
O       13.62415800       9.65448400      10.09044800       0.00129819      -0.01828513      -0.01686526       1.92158341       1.64324584      -0.49172676       1.92028522       1.66153097      -0.47486150
H       13.28568500       8.92624300      10.54746200      -0.00580170       0.00241040       0.00485990      -1.08237841      -1.51777245       0.86591563      -1.07657671      -1.52018285       0.86105573
H       12.97083400      10.07388800       9.52840900      -0.00082127       0.00121345       0.01781576      -0.52392391      -0.34596900       0.17324146      -0.52310264      -0.34718245       0.15542570
27
Properties=species:S:1:pos:R:3:REF_forces:R:3:DFT_forces:R:3:FOUNDATION_forces:R:3 REF_energy=0.011589878013182897 charge=0 spin=1 external_field="0.0 0.0 0.0" config_type=ORCA_DFT source_file=C_DFTprod_cutcluster_0099.out orca_step=0 DFT_energy=-18719.398566371987 FOUNDATION_energy=-18719.41015625 pbc="F F F"
O       12.71354500       8.88435500      12.77999000       0.00618725      -0.03839356       0.01541786      -0.34577874       0.56236499       1.82368736      -0.35196599       0.60075855       1.80826950
H       12.20731700       9.59966300      12.37218400      -0.00313293       0.02704100       0.01430130       0.18153928       0.09645818      -0.15242277       0.18467221       0.06941718      -0.16672407
H       12.65207000       9.09148000      13.75831700      -0.00763036       0.00821815       0.00080356       0.28590356      -0.45163914      -1.67376998       0.29353392      -0.45985729      -1.67457354
O       15.12515900       9.25806200      10.92654000      -0.01695046      -0.00584171       0.00506194      -1.52774391      -0.00775198       1.95341475      -1.51079345      -0.00191027       1.94835281
H       15.05979200      10.05923600      10.42920900       0.00811149      -0.01166622       0.01102815       0.25091336       0.72708561      -0.78493132       0.24280187       0.73875183      -0.79595947
H       14.42241800       9.43532900      11.63283800       0.02510669       0.01122064      -0.01799001       1.30527189      -0.83019930      -1.16002347       1.28016520      -0.84141994      -1.14203346
O       14.45605900      12.73020300       9.25851000      -0.00580059       0.00804409      -0.03006712      -0.42324449      -1.41400138       0.91159513      -0.41744390      -1.42204547       0.94166225
H       14.18839700      12.21194300      10.06387100      -0.00007686       0.00120736       0.00897834       0.34269702       0.90547622      -0.69548222       0.34277388       0.90426886      -0.70446056
H       14.17304700      12.12069300       8.55933200      -0.00004858       0.00210710       0.01348342       0.06258703       0.37279754      -0.10824294       0.06263561       0.37069044      -0.12172636
O       12.46705800      14.57705300      10.07276900       0.02875902       0.02801966      -0.01073663       1.71285512      -1.24559653      -0.94598179       1.68409610      -1.27361619      -0.93524516
H       13.23597300      14.00348100       9.70457900      -0.00452833      -0.00942371       0.00360132      -1.49764328       1.64458086       0.06991329      -1.49311495       1.65400457       0.06631197
H       12.34759100      14.00190400      10.83608100      -0.01575170      -0.01210305       0.03472153      -0.49837337       0.16393103       0.42666031      -0.48262167       0.17603408       0.39193878
O        9.76815200      12.97715500      10.53339500       0.04729026      -0.02219349       0.02173292      -0.41614521      -0.05529158       0.88890808      -0.46343547      -0.03309809       0.86717516
H        9.48178200      13.86374400      10.77271600       0.00164170       0.00657816      -0.02393587       0.14832454       0.20464414       0.00547141       0.14668284       0.19806598       0.02940728
H        9.02443500      12.41090300      10.76482100      -0.01648653      -0.01002140       0.01177996      -0.03212290       0.05369163      -0.24707866      -0.01563637       0.06371303      -0.25885862
O       11.61277000      10.52902100      10.49267000      -0.02567325      -0.00888011      -0.03822449      -0.37554065      -3.43099782       2.22442457      -0.34986740      -3.42211771       2.26264906
H       10.94462200       9.81451400      10.79508500       0.00173752      -0.01617222       0.00028189       1.53067224       1.91244180      -1.16808383       1.52893472       1.92861402      -1.16836572
H       11.15566500      11.14024800       9.96400000       0.00731475       0.02091393      -0.02665159      -1.13196497       1.34356734      -1.35910842      -1.13927972       1.32265341      -1.33245683
O       12.75072500      12.64579800      11.90432500      -0.03362810       0.00079134       0.05688230      -1.12357222      -2.05471370      -0.89626118      -1.08994412      -2.05550504      -0.95314348
H       12.74682900      13.02519300      12.74913800       0.02851290       0.01754182      -0.03227058       0.42738551       1.20556455       2.00267467       0.39887261       1.18802273       2.03494525
H       12.00000000      12.00000000      12.00000000       0.00380361       0.01754038      -0.00296722       0.80452472       0.54497050      -0.69659088       0.80072111       0.52743012      -0.69362366
O       10.64404900      12.71816400       8.10908200      -0.02370362       0.01218354       0.01134436      -0.21486793      -0.13405774       0.78016012      -0.19116431      -0.14624128       0.76881576
H       10.97219400      13.47944000       7.63332400       0.00459744      -0.00711124      -0.00453738       0.22514550       0.20660086      -0.03387573       0.22054806       0.21371210      -0.02933835
H       10.47331300      13.03271100       9.03751600      -0.00766381      -0.00989359      -0.01972018       0.27285526      -0.21783709      -1.38970779       0.28051907      -0.20794350      -1.36998761
O       10.12002600      11.15355300      13.11991100       0.01045100      -0.00889965      -0.00998304      -0.40559377      -0.73626198       0.14585545      -0.41604477      -0.72736233       0.15583849
H       10.18497100      10.31566500      13.63222500      -0.01699770      -0.00387278      -0.00140317      -0.39327175       0.85649058      -0.54694064      -0.37627405       0.86036336      -0.54553747
H        9.23853800      11.16552300      12.69039100       0.00455906       0.00306505       0.00906874       0.83518811      -0.22231770       0.62573637       0.83062905      -0.22538275       0.61666763
27
Properties=species:S:1:pos:R:3:REF_forces:R:3:DFT_forces:R:3:FOUNDATION_forces:R:3 REF_energy=-0.02470850395548041 charge=0 spin=1 external_field="0.0 0.0 0.0" config_type=ORCA_DFT source_file=C_DFTprod_cutcluster_0200.out orca_step=0 DFT_energy=-18720.118458503955 FOUNDATION_energy=-18720.09375 pbc="F F F"
O       12.00000000      12.00000000      12.00000000      -0.02791708      -0.02779670       0.00410467       0.37587834      -0.23326659       0.18519796       0.40379542      -0.20546989       0.18109329
H       12.28156000      11.28040500      12.61288000       0.00058339       0.00720595       0.00879883      -0.22073041       0.53588592      -0.34067089      -0.22131380       0.52867997      -0.34946972
H       12.77343300      12.20781800      11.44271400       0.01959983       0.00527325      -0.03038325      -0.31177014      -0.03630665       0.19572056      -0.33136997      -0.04157990       0.22610381
O       10.44224800       8.21062700      13.12921100      -0.02311331      -0.00717795       0.01136679      -0.58792788      -1.38582826       0.71494121      -0.56481457      -1.37865031       0.70357442
H       10.96152500       7.93766300      13.89709100       0.01402922      -0.00564454       0.00697920      -0.07462478       0.11039279      -0.32215354      -0.08865400       0.11603733      -0.32913274
H       10.80402800       9.02665200      12.84514200       0.01767514       0.02392026      -0.02267816       0.57279555       1.18317970      -0.44585642       0.55512041       1.15925944      -0.42317826
O       15.09201300      12.99323700      10.79422100      -0.00520945       0.01160889       0.00164405       1.30284857      -1.50512190      -1.99811014       1.30805802      -1.51673079      -1.99975419
H       14.37269000      13.34979200      10.24494400      -0.01430678       0.00220120       0.00021978       0.04966662       0.00871419      -0.07797575       0.06397340       0.00651299      -0.07819553
H       15.66938800      12.47718500      10.10705100       0.00641195      -0.01242117      -0.00320116      -1.66355010       1.45925208       1.98202547      -1.66996205       1.47167325       1.98522663
O       11.04621100      14.17073300      14.00538800      -0.00819148      -0.00328257      -0.00594125       0.62454985      -0.56038859      -0.88906059       0.63274133      -0.55710602      -0.88311934
H       10.39422400      13.57392200      14.37408500      -0.00135669      -0.00045929       0.00041693      -0.18609302      -0.07345041       0.13531357      -0.18473633      -0.07299112       0.13489664
H       11.48036800      13.62773800      13.30024000       0.01126267       0.00113100       0.00614894      -0.42954652       0.54486966       0.69322670      -0.44080919       0.54373866       0.68707776
O       11.57554700      10.98653600       9.03916700      -0.01795157       0.02851429      -0.01029400      -0.20548711       0.10790257       0.31859287      -0.18753554       0.07938828       0.32888687
H       10.89452800      10.94629600       9.75965000       0.02215102      -0.00370840      -0.01031553       0.06803031      -0.36637739      -0.75845837       0.04587929      -0.36266899      -0.74814284
H       11.11735900      11.08471700       8.19696700       0.00444803      -0.01301407       0.00418077      -0.16359314      -0.20375758       0.14791177      -0.16804117      -0.19074351       0.14373100
O       12.46748600      13.44388900       9.13551700       0.02148415       0.03767051       0.02289777       1.46828426      -1.47825418      -0.09238298       1.44680011      -1.51592469      -0.11528075
H       12.02250600      12.55137700       9.19453100      -0.02523722      -0.05353989       0.01624139       0.21461570       0.88018165      -0.11346629       0.23985292       0.93372154      -0.12970768
H       11.88726300      14.15507900       9.29704000       0.00869659       0.00970641      -0.01312927      -1.21340605       0.96152935       0.33686056      -1.22210264       0.95182294       0.34998983
O        9.70705400      10.73475700      11.04754100       0.01636877       0.01935833       0.01152002      -1.29607592       0.18643909      -0.22500821      -1.31244469       0.16708076      -0.23652823
H        8.79030700      11.10353000      11.04282900      -0.01920315      -0.01141790       0.01055635       1.21361915      -0.44377259       0.06060065       1.23282230      -0.43235469       0.05004430
H       10.26931100      11.35495200      11.52410000       0.01126196       0.00376880      -0.00693269       0.19416813       0.42145639       0.31724320       0.18290617       0.41768759       0.32417589
O       13.49398700       8.76229400       9.77251100       0.01444599      -0.00401313      -0.00905766       0.91219297      -0.82939197      -0.55997248       0.89774698      -0.82537884      -0.55091482
H       13.37653200       9.45303400       9.11482900      -0.00102275      -0.00289047       0.01405100      -0.47622722       0.23815596       0.51372183      -0.47520447       0.24104643       0.49967083
H       13.07096500       8.97626900      10.59553400      -0.01167768      -0.00505438      -0.00413936      -0.45798144       0.52565524       0.11812857      -0.44630376       0.53070962       0.12226793
O       12.81735000      10.02107300      13.74853700      -0.00949816      -0.00971955      -0.00349717       1.52815898       0.62473029      -0.27646648       1.53765714       0.63444984      -0.27296931
H       12.66632400      10.00527000      14.69853300       0.00433378       0.00178397      -0.00510403      -0.03093963       0.08709736       0.09051554      -0.03527341       0.08531339       0.09561957
H       13.72581600      10.41992100      13.64240000      -0.00806723       0.00799666       0.00554730      -1.20685504      -0.75952615       0.28958173      -1.19878781      -0.76752281       0.28403443
27
Properties=species:S:1:pos:R:3:REF_forces:R:3:DFT_forces:R:3:FOUNDATION_forces:R:3 REF_energy=0.023130932739150012 charge=0 spin=1 external_field="0.0 0.0 0.0" config_type=ORCA_DFT source_file=C_DFTprod_cutcluster_0203.out orca_step=0 DFT_energy=-18720.22882219226 FOUNDATION_energy=-18720.251953125 pbc="F F F"
O       10.98503400      11.44767400      13.44082000      -0.00495830      -0.01216307      -0.01751426       0.34038344      -1.64626041       0.40193668       0.34534174      -1.63409734       0.41945094
H       10.88883100      10.48243800      13.64863500      -0.00198745       0.01165964       0.00265824       0.31599004       1.37162306      -0.33289016       0.31797749       1.35996342      -0.33554840
H       10.08874800      11.70616000      13.19877700       0.00669820      -0.00255190       0.00146024      -0.72924822       0.37034862       0.07868471      -0.73594642       0.37290052       0.07722447
O       12.56678500      12.04587900      11.21623700      -0.00411773       0.02524660       0.02244871       1.46976578       1.46214853       0.28067990       1.47388351       1.43690193       0.25823119
H       12.00000000      12.00000000      12.00000000      -0.00563184      -0.00159149       0.00530135      -0.30832404      -0.47472282       0.31285247      -0.30269220      -0.47313133       0.30755112
H       13.28693500      12.67174300      11.52975200      -0.00514206       0.00488162      -0.02679932      -1.17151579      -1.03605998      -0.76808977      -1.16637373      -1.04094160      -0.74129045
O       14.04586300      11.13722200      13.93576100       0.01806660       0.00328132      -0.00781922      -1.01120965       0.53483876       1.28336711      -1.02927625       0.53155744       1.29118633
H       14.75140600      11.76497100      13.91198900      -0.00106817      -0.01717278       0.00208707       1.46337849       0.17114210      -0.75459950       1.46444666       0.18831488      -0.75668657
H       13.58200200      11.58602200      14.67437300      -0.01144617       0.01293566       0.01776170      -0.51029902      -0.88699631      -0.46797130      -0.49885285      -0.89993197      -0.48573300
O       11.54394300      13.86528300       9.27058700      -0.01038651       0.00282139      -0.01734855       0.28145982      -0.26137590       0.66944096       0.29184633      -0.26419729       0.68678951
H       11.92793600      14.64239600       9.69800900      -0.00363061      -0.00085722       0.00543155      -0.04078968      -0.03244825      -0.21041293      -0.03715907      -0.03159103      -0.21584448
H       11.93936700      13.12928100       9.79800200       0.00592095      -0.00651170       0.00918178      -0.09544414       0.27825298      -0.29495986      -0.10136509       0.28476468      -0.30414164
O       13.39544800       8.10201800      12.82867900      -0.01024307       0.03387509       0.01554010       0.41210483       1.55347191       1.58611212       0.42234790       1.51959682       1.57057202
H       12.47358700       7.87248400      12.96817200       0.00357155      -0.00029905       0.00398852      -0.07055025       0.01130432      -0.01544559      -0.07412180       0.01160337      -0.01943411
H       13.56453900       8.93715700      13.38354800      -0.00658282      -0.03061260      -0.01618605      -0.38459479      -1.66591407      -1.05690675      -0.37801197      -1.63530147      -1.04072070
O        9.09105900      12.94783300      10.26908700      -0.00932072       0.00219187       0.01559920      -0.01399560      -0.34883455       0.21463982      -0.00467488      -0.35102642       0.19904062
H        9.93197200      13.41000200      10.09359900       0.01989104       0.01152410      -0.00442281      -0.05952968       0.00558223      -0.37319252      -0.07942072      -0.00594187      -0.36876971
H        9.24949200      12.04019300       9.96221000       0.00232685      -0.01169077      -0.00503656      -0.07464895       0.45784702       0.13262373      -0.07697580       0.46953779       0.13766029
O       14.31970200      14.66176600      11.71406900      -0.00217796      -0.00024057       0.00893622      -0.57085884       1.32256996       0.00297883      -0.56868088       1.32281053      -0.00595739
H       14.82758500      14.16715600      12.33780100       0.00322093      -0.00157547      -0.00656489       0.71379609      -0.61181837       0.56307271       0.71057516      -0.61024290       0.56963760
H       14.27074300      15.54668500      12.13733800      -0.00073284      -0.00021963       0.00018845      -0.09133233      -0.74873291      -0.54157664      -0.09059949      -0.74851328      -0.54176509
O       14.39837000       9.71955800      10.91545700      -0.00020932      -0.01154956      -0.00996507       0.85958649      -1.79901084       0.52591138       0.85979581      -1.78746128       0.53587645
H       14.13130400       8.97197100      11.52473500       0.01478633       0.00207611      -0.00868047       0.26441253       1.19063266      -1.18736721       0.24962620       1.18855655      -1.17868674
H       13.72034200      10.36836900      11.00152800       0.01216978      -0.01129060       0.01001538      -0.95580119       0.86254681       0.13364379      -0.96797097       0.87383741       0.12362841
O        8.48837200      12.53416700      13.07148700      -0.00150575      -0.00576211      -0.00059802      -0.87116088      -0.25323609       0.14361469      -0.86965513      -0.24747398       0.14421271
H        7.59548100      12.16109300      12.95332800      -0.00073033       0.00500582       0.00395122       0.58682359       0.11649824       0.23165713       0.58755392       0.11149242       0.22770591
H        8.59275200      13.06282800      12.27268200      -0.00678068      -0.00141058      -0.00361459       0.25160185       0.05660335      -0.55780391       0.25838253       0.05801393      -0.55418932
27
Properties=species:S:1:pos:R:3:REF_forces:R:3:DFT_forces:R:3:FOUNDATION_forces:R:3 REF_energy=-0.0013883685642213095 charge=0 spin=1 external_field="0.0 0.0 0.0" config_type=ORCA_DFT source_file=C_DFTprod_cutcluster_0204.out orca_step=0 DFT_energy=-18719.706466493564 FOUNDATION_energy=-18719.705078125 pbc="F F F"
O       10.97705300      10.31883200      14.28244300      -0.00027306       0.00220306      -0.01798478       0.84650426       0.36904754      -2.26300732       0.84677732       0.36684448      -2.24502254
H       11.23671700      10.50948600      13.30998800      -0.00374657      -0.01324523       0.01770266      -0.87781006      -0.43663377       2.25675686      -0.87406349      -0.42338854       2.23905420
H       11.08727200       9.36515900      14.37384600      -0.00092979       0.00746592       0.00523133      -0.04858429       0.00786310      -0.06352363      -0.04765450       0.00039718      -0.06875496
O       15.13745700       9.96144100       9.85094600      -0.01543149      -0.00163489       0.01042229       0.76229635      -1.90596920      -1.02105945       0.77772784      -1.90433431      -1.03148174
H       14.54624700       9.61813500       9.16441700       0.00727970       0.00559815      -0.00925611       0.16727619       0.31408455       0.30144505       0.15999649       0.30848640       0.31070116
H       14.73600500      10.69319900      10.25870700      -0.00383505      -0.00117196      -0.00112907      -1.03769490       1.58669709       0.82003840      -1.03385985       1.58786905       0.82116747
O       11.06919800      12.22547500      11.74614400      -0.01893430       0.01251913      -0.01886422       1.81858701      -1.41435455      -1.24063594       1.83752131      -1.42687368      -1.22177172
H       10.66676700      12.72761300      12.42824300       0.00838664       0.00405817      -0.00399404      -0.80750165       0.68293683       1.32226009      -0.81588829       0.67887866       1.32625413
H       12.00000000      12.00000000      12.00000000      -0.00951056      -0.00753978      -0.00121806      -0.85810117       0.57565364      -0.13566015      -0.84859061       0.58319342      -0.13444209
O       11.06843300       9.90681100       9.44379700       0.00202479       0.00505279       0.00420643       2.72479095       1.47721098       1.43701471       2.72276616       1.47215819       1.43280828
H       10.54735100      10.69906200       9.29387100       0.00663185       0.00125571       0.00353528      -0.53765309       0.06054300      -0.14270004      -0.54428494       0.05928729      -0.14623532
H       11.87194600      10.36705300       9.91267500       0.01143817       0.00356725       0.00362846      -2.14429089      -1.53861067      -1.19720605      -2.15572906      -1.54217792      -1.20083451
O       13.21756100       7.94712500      12.20301700      -0.00222887      -0.02969996       0.00228834      -0.10448033      -0.54612128       1.18583262      -0.10225146      -0.51642132       1.18354428
H       13.76412800       8.69394900      12.02141500       0.01653430       0.01495941      -0.00100185       0.93788585       0.69746645      -0.57996990       0.92135155       0.68250704      -0.57896805
H       12.56353500       7.95051900      11.52278000      -0.00623459       0.00811477       0.00144328      -0.77996570      -0.05720484      -0.78761684      -0.77373111      -0.06531961      -0.78906012
O       13.92757400      11.69758300      12.06708300       0.00270158       0.00400686       0.01237621      -0.74319655      -1.47198367      -0.35873325      -0.74589813      -1.47599053      -0.37110946
H       14.45604100      11.20094300      12.71003200       0.00427581      -0.00931049       0.00682230       0.03434886      -0.54941589       0.19872392       0.03007305      -0.54010540       0.19190162
H       14.25998800      12.56266800      12.11585300      -0.00463905      -0.00070963      -0.01465503       0.62814240       2.02850737      -0.06840379       0.63278145       2.02921700      -0.05374876
O       14.77671500       9.80930500      13.91503900       0.02178547       0.00168957       0.00219741      -2.80681589      -0.65680902      -0.34670887      -2.82860136      -0.65849859      -0.34890628
H       14.71535800      10.36601900      14.69945400      -0.00376375      -0.01372431      -0.01383564       0.07237507      -0.07939979       0.18165868       0.07613882      -0.06567548       0.19549432
H       13.80403200       9.45466900      13.81696900      -0.01539333       0.01378938       0.00420537       2.63088696       0.72704514       0.43315383       2.64628029       0.71325576       0.42894846
O       11.53617400      14.10684800       9.56073200       0.00416492       0.00005578       0.00337935       1.39240550      -0.34392611      -1.06668794       1.38824058      -0.34398189      -1.07006729
H       12.28594800      13.53776400       9.26925400       0.00091115      -0.00355500      -0.00894310      -0.71177145       0.85526699       0.08478604      -0.71268260       0.85882199       0.09372914
H       11.13857100      13.53994200      10.20839100      -0.00131575       0.00197421       0.00679233      -0.60679088      -0.50670739       0.96806505      -0.60547513      -0.50868160       0.96127272
O        8.86809500      12.79872900      13.31902200      -0.01130192      -0.00596692       0.01316870      -0.73525195      -1.91384007      -1.19941627      -0.72395003      -1.90787315      -1.21258497
H        8.41416500      11.90584600      13.31145300       0.00621022      -0.01089031      -0.00213506       0.94958622       1.50498193      -0.07631991       0.94337600       1.51587224      -0.07418485
H        8.73559200      13.10636800      14.19417200       0.00519322       0.01113876      -0.00438369      -0.16517688       0.53367158       1.35791384      -0.17037010       0.52253282       1.36229753
27
Properties=species:S:1:pos:R:3:REF_forces:R:3:DFT_forces:R:3:FOUNDATION_forces:R:3 REF_energy=-0.017208149783982662 charge=0 spin=1 external_field="0.0 0.0 0.0" config_type=ORCA_DFT source_file=C_DFTprod_cutcluster_0205.out orca_step=0 DFT_energy=-18720.694942524784 FOUNDATION_energy=-18720.677734375 pbc="F F F"
O       13.56564200      10.50808700      10.21609000       0.00091051       0.00396035      -0.01074800      -0.18142117       0.11820180       0.83314100      -0.18233168       0.11424145       0.84388900
H       12.69253300      10.27523100      10.60013100       0.00071423      -0.00561629       0.00962320       0.73621832       0.21134804      -0.17469645       0.73550409       0.21696433      -0.18431965
H       14.12147400      10.72277500      10.99484000      -0.00267747      -0.00792822       0.00290069      -0.50352791      -0.23976336      -0.61955908      -0.50085044      -0.23183514      -0.62245977
O       13.80077900       9.46418600      13.52418800      -0.01715110      -0.00371631      -0.00426724       0.44732498      -0.98940726      -0.29868271       0.46447608      -0.98569095      -0.29441547
H       14.58040300       8.88454500      13.37080500      -0.00093653       0.00264213      -0.00435528      -0.78905799       0.81505648       0.26915148      -0.78812146       0.81241435       0.27350676
H       14.09839400      10.27835800      13.95865400       0.00667966       0.01556247       0.00674635       0.24731613       0.26737007      -0.11050165       0.24063647       0.25180760      -0.11724800
O       11.68121800      10.34416300      16.68919700      -0.01384432      -0.00506282      -0.00595786       0.53636270      -1.58640599      -0.39098825       0.55020702      -1.58134317      -0.38503039
H       11.89839500       9.39586900      16.46207400       0.00322649       0.01310427      -0.00547464      -0.34594160       1.67867775       0.33830033      -0.34916809       1.66557348       0.34377497
H       11.27544900      10.71132700      15.88588800       0.00506690      -0.01761703       0.00935380      -0.09868728      -0.09843562       0.11097057      -0.10375418      -0.08081859       0.10161677
O       15.74950000      14.60200900      14.81201300      -0.00473130       0.00213820       0.00307550      -0.20318257       0.96094972      -0.24378338      -0.19845127       0.95881152      -0.24685888
H       15.11371000      13.98767000      14.44246900      -0.00687653      -0.00617993      -0.00137457       0.05803479      -0.76213026      -0.12452738       0.06491132      -0.75595033      -0.12315281
H       15.47592000      15.42099700      14.37099200       0.00408939      -0.00102625      -0.00211659       0.39263258      -0.02655256       0.34492925       0.38854319      -0.02552631       0.34704584
O        9.87853000      11.36566100      14.74066500      -0.01355264      -0.00836809       0.01246859      -0.06420261       1.88422553       1.06171466      -0.05064997       1.89259362       1.04924607
H        9.47392500      10.51014300      14.56898000       0.01050683      -0.00163197       0.00180244      -0.55394016      -0.55973851      -0.22777199      -0.56444699      -0.55810654      -0.22957443
H        9.31319300      11.88715400      15.37129500      -0.00873910       0.01112758      -0.00875385       0.78945209      -0.98512925      -1.03377016       0.79819119      -0.99625683      -1.02501631
O        9.03551100       9.12733200      13.62355700      -0.00933683       0.01049979       0.01365277      -0.48357332      -1.54975872       1.39408001      -0.47423649      -1.56025851       1.38042724
H        9.28210600       8.23199700      13.96095600       0.01142288       0.00428736       0.00220994      -0.36896279       1.10627687      -0.37168323      -0.38038567       1.10198951      -0.37389317
H        9.53837400       9.21682300      12.82749700       0.01264788       0.00102705      -0.01145943       0.87881233       0.23377207      -1.00959947       0.86616445       0.23274502      -0.99814004
O       11.44202200       9.44197300      11.95065500      -0.00084538       0.00326549      -0.01659656       0.86525285      -1.73314107      -0.95721895       0.86609823      -1.73640656      -0.94062239
H       11.62247800       8.66762900      11.32467700      -0.00866980      -0.00135006      -0.00066692      -0.41683710       1.50786100       1.33057195      -0.40816730       1.50921106       1.33123887
H       12.21806500       9.41553300      12.57616500       0.01845009       0.00814223       0.01281838      -0.48626476       0.06982109      -0.38515900      -0.50471485       0.06167886      -0.39797738
O       12.03859700      12.29356300      12.89660400      -0.00638695      -0.01700535      -0.01883799      -0.37610604       0.43978805       1.55291742      -0.36971909       0.45679340       1.57175541
H       11.21395100      12.04558400      13.37939700      -0.00960602      -0.00400209       0.01678906       0.55316250       0.04166715      -0.59192332       0.56276852       0.04566924      -0.60871238
H       12.00000000      12.00000000      12.00000000       0.00633785       0.00655924      -0.00511580      -0.32631436      -0.39083846      -0.80301713      -0.33265221      -0.39739770      -0.79790133
O       14.46131400      12.19189300      14.20742100       0.02384374      -0.00024132       0.00496330      -0.67833152       0.10506608       1.71982410      -0.70217526       0.10530740       1.71486080
H       14.33221600      12.24775800      15.19991900       0.00700812      -0.00661225       0.00240496       0.21954276      -0.12653814      -1.59254738       0.21253464      -0.11992589      -1.59495234
H       13.58941200      12.46016900      13.83372100      -0.00755081       0.00404172      -0.00308430       0.15223914      -0.39224244      -0.02017128       0.15978995      -0.39628416      -0.01708698
27
Properties=species:S:1:pos:R:3:REF_forces:R:3:DFT_forces:R:3:FOUNDATION_forces:R:3 REF_energy=0.0239284401977784 charge=0 spin=1 external_field="0.0 0.0 0.0" config_type=ORCA_DFT source_file=C_DFTprod_cutcluster_0206.out orca_step=0 DFT_energy=-18719.690915309802 FOUNDATION_energy=-18719.71484375 pbc="F F F"
O        9.58768000      10.81882400      12.19657600       0.00663560      -0.00364364       0.00207911       2.12398570      -1.77040017       1.39138899       2.11735010      -1.76675653       1.38930988
H        9.95562500      10.57025900      13.14189000      -0.01739371       0.00640151       0.00259698      -1.34320939       0.97465566      -2.12032091      -1.32581568       0.96825415      -2.12291789
H       10.23639900      10.35413800      11.59513000       0.00924406      -0.01682908      -0.01496037      -1.17677858       0.95259755       0.56269322      -1.18602264       0.96942663       0.57765359
O       14.37243000       9.23485000      12.36722500       0.00152638       0.01458190      -0.02428191      -0.09602824      -1.04806282      -1.89007109      -0.09755462      -1.06264472      -1.86578918
H       14.34925600      10.00624000      12.95564000       0.00062854       0.01062730       0.01436811       0.53186662       0.64043793      -0.54124559       0.53123808       0.62981063      -0.55561370
H       14.72519800       9.41361300      11.45021000      -0.00388822      -0.01188847       0.00941738      -0.43144307       0.24163646       2.03962287      -0.42755485       0.25352493       2.03020549
O        8.95699400      13.33973100      11.76168000      -0.01123925      -0.01387385       0.01584729       0.51836447       0.71811673       0.10947434       0.52960372       0.73199058       0.09362705
H        9.65762300      13.99826700      11.86899400       0.01801124       0.01065110      -0.00064012      -0.28647953      -0.04968200      -0.30618992      -0.30449077      -0.06033310      -0.30554980
H        9.39711900      12.48435300      11.93508800       0.00096837       0.00140815       0.00522764      -0.41604468      -0.27503900      -0.02740256      -0.41701305      -0.27644715      -0.03263020
O       13.34157200      15.17168600      11.76489900       0.00523827      -0.00135370      -0.00871935       0.50916681       0.09083970      -2.03569689       0.50392854       0.09219340      -2.02697754
H       13.59869500      15.27965100      10.79336900      -0.00459675       0.00604899       0.00543028      -0.57193176      -0.31900086       2.13220984      -0.56733501      -0.32504985       2.12677956
H       13.16772100      14.22188400      11.88900900      -0.00011323      -0.00150445       0.00216661      -0.00674812       0.24639033      -0.03265132      -0.00663489       0.24789478      -0.03481793
O       12.18301300      12.63747600      12.68394000      -0.01924042      -0.02017561      -0.01901047       1.35884448       0.31967988       0.45224433       1.37808490       0.33985549       0.47125480
H       11.37657400      13.00612800      13.03311200       0.00964310      -0.00769829      -0.02502278      -0.73623041      -0.16187667       0.23652932      -0.74587351      -0.15417838       0.26155210
H       12.00000000      12.00000000      12.00000000      -0.00482077       0.03049433       0.02309927      -0.65345425      -0.36632592      -0.60841731      -0.64863348      -0.39682025      -0.63151658
O       11.71023700      10.62433700      10.43329500      -0.00003924       0.00541818      -0.00643302       0.08707293       0.21068120      -1.07045806       0.08711217       0.20526302      -1.06402504
H       12.26813700       9.88815200      10.70176300       0.00045689      -0.01356814       0.00477014       0.29371436      -0.17488403      -0.17861136       0.29325747      -0.16131589      -0.18338150
H       11.71976000      10.67849800       9.44605900       0.00212208       0.00812210      -0.00183025       0.04708179      -0.18702139       1.30456278       0.04495971      -0.19514349       1.30639303
O       10.38159700      10.07392400      14.62666500      -0.00106445       0.01274335      -0.00168013       2.19564256      -2.46324480      -1.01280939       2.19670701      -2.47598815      -1.01112926
H       10.75485800      10.47338000      15.42139200       0.00354632      -0.01792920       0.00137360       0.10565152      -0.06424179      -0.19322361       0.10210520      -0.04631259      -0.19459721
H       11.07660600       9.37814100      14.25822100       0.00016995       0.00148493       0.00491260      -2.01855139       2.15945202       1.57100771      -2.01872134       2.15796709       1.56609511
O       14.39683300      11.40681500      13.92462300       0.01725795      -0.02002563       0.00471389      -0.44483004       0.56008319      -1.04214728      -0.46208799       0.58010882      -1.04686117
H       14.28792700      11.04608500      14.77654600      -0.00620746       0.00529997      -0.00634007       0.31205178      -0.76737578       1.85511489       0.31825924      -0.77267575       1.86145496
H       13.50560700      11.76516100      13.76690800      -0.00051797       0.00136947       0.01017479       0.03681152       0.52139991      -0.57223078       0.03732949       0.52003044      -0.58240557
O        9.89973000      13.60338800      14.76327100      -0.01712336       0.01140092       0.00084751       0.42534606       0.73210327      -0.28616149       0.44246942       0.72070235      -0.28700900
H       10.36196800      13.83821200      15.59518600       0.00554684       0.00983475       0.01477563      -0.42627382       0.25855170      -0.96225322      -0.43182066       0.24871695      -0.97702885
H        9.81991700      14.40515100      14.18225400       0.00524897      -0.00739699      -0.01288200       0.06240274      -0.97947031       1.22504246       0.05715377      -0.97207332       1.23792446
27
Properties=species:S:1:pos:R:3:REF_forces:R:3:DFT_forces:R:3:FOUNDATION_forces:R:3 REF_energy=-0.014556801550497767 charge=0 spin=1 external_field="0.0 0.0 0.0" config_type=ORCA_DFT source_file=C_DFTprod_cutcluster_0208.out orca_step=0 DFT_energy=-18719.28018180155 FOUNDATION_energy=-18719.265625 pbc="F F F"
O       11.82782000      16.27546100      12.37024200      -0.00397722       0.00401181       0.00249979       0.46927526       0.51485604       0.14173377       0.47325248       0.51084423       0.13923398
H       12.29130200      15.76693800      13.05428600       0.00401133       0.00498564      -0.00062719      -0.10995195      -0.07699580      -0.37083754      -0.11396328      -0.08198144      -0.37021035
H       10.99318900      15.85078600      12.20910500      -0.00449914      -0.00750398      -0.01015645      -0.42752296      -0.37417036      -0.06842575      -0.42302382      -0.36666638      -0.05826930
O        8.89966300      12.63208400      10.91952500      -0.00127576      -0.00295984      -0.00651174       1.67996027      -0.70027923       0.00553841       1.68123603      -0.69731939       0.01205015
H        8.21813200      12.97629300      11.48089400      -0.00133295       0.00499657       0.00845107      -0.22131873       0.19926056       0.64854380      -0.21998578       0.19426399       0.64009273
H        9.74180500      12.47615200      11.44587800      -0.00370927      -0.00091688      -0.00415957      -1.52208753       0.60724201      -0.74825895      -1.51837826       0.60815889      -0.74409938
O       13.07559500      11.05561200       8.74851300      -0.01387817       0.00816539       0.02345904      -0.95291919      -1.73456618       0.85006734      -0.93904102      -1.74273157       0.82660830
H       12.68087600      10.32817100       9.30623600      -0.00346409      -0.01779188      -0.00147605       0.52659632       1.10345446      -1.04893386       0.53006041       1.12124634      -1.04745781
H       13.66581400      11.49270000       9.37064800       0.01023317       0.00060125       0.00183890       0.06675870       0.34651043      -0.12252799       0.05652553       0.34590918      -0.12436689
O       14.39981800      12.75659500      10.32320100       0.01880999      -0.03662745      -0.00241144       2.34425254       0.02796291      -0.84019215       2.32544255       0.06459036      -0.83778071
H       13.75573400      13.30070600      10.73478600      -0.01397964       0.03499834      -0.01607015      -0.98312601       1.12040297       0.49636606      -0.96914637       1.08540463       0.51243621
H       15.06547000      13.33802500       9.86545400      -0.00482582      -0.00186767       0.01475664      -1.26407741      -0.73336609       0.73685344      -1.25925159      -0.73149842       0.72209680
O       13.57224900      14.83765700      14.01151600      -0.00972429      -0.00011054       0.01087757      -0.02290833       0.30400094       0.61142566      -0.01318404       0.30411148       0.60054809
H       13.40550600      15.22687000      14.89555600       0.01325210       0.00671121       0.00773539       0.17325359      -0.70315126      -0.68321703       0.16000149      -0.70986247      -0.69095242
H       13.36841800      13.89202700      14.01338000       0.00079712      -0.00537530      -0.00716818      -0.04245750       0.33513566       0.26930060      -0.04325462       0.34051096       0.27646878
O       10.76607600      12.73939000      15.08982300       0.00519877      -0.01317228       0.00029997       2.99661212       2.31527363       1.73409788       2.99141335       2.32844591       1.73379791
H       11.51314900      13.01328300      15.78313500       0.00077721       0.00351114       0.00228966      -2.61386255      -0.99904268      -2.24030911      -2.61463976      -1.00255382      -2.24259877
H       10.53226000      11.86089800      15.32446300      -0.00613396       0.00238793      -0.00293821      -0.34152357      -1.32583578       0.42250767      -0.33538961      -1.32822371       0.42544588
O       16.41940200      10.62825100      10.14761900       0.00024473       0.00251197      -0.00379424      -1.03218425       1.24626969       0.88870187      -1.03242898       1.24375772       0.89249611
H       15.51273300      10.87999000      10.48373900      -0.01290003       0.00067302      -0.01263640       1.33235594      -0.49513439      -0.65514002       1.34525597      -0.49580741      -0.64250362
H       16.90205500      11.46448500      10.31607000       0.00772144       0.00005615       0.01737760      -0.17679673      -0.81560772      -0.18996021      -0.18451817      -0.81566387      -0.20733781
O       11.51817600      12.78773200      12.15623900       0.00678442       0.01021271      -0.02639062      -0.54489388       1.43946152      -0.25922332      -0.55167830       1.42924881      -0.23283270
H       11.28070000      12.83582900      13.08495500       0.00749010       0.00767564       0.02202658      -0.00314523      -0.24152631       0.50502486      -0.01063533      -0.24920195       0.48299828
H       12.00000000      12.00000000      12.00000000      -0.00414643      -0.02561902      -0.00529730       0.62368241      -1.47272204      -0.05828578       0.62782884      -1.44710302      -0.05298848
O       12.78797900       9.34395200      11.99323500      -0.00387324       0.00413996       0.00414716       0.77429806       0.38360101       0.66949927       0.77817130       0.37946105       0.66535211
H       13.56396700       9.43234600      12.57543700       0.01117651       0.00271681      -0.00841901      -0.40000619       0.33121797      -0.20938942      -0.41118270       0.32850116      -0.20097041
H       12.90098200       8.43456600      11.73139600       0.00122234       0.01358931      -0.00770291      -0.32826320      -0.60225196      -0.48495966      -0.32948554      -0.61584127      -0.47725675
27
Properties=species:S:1:pos:R:3:REF_forces:R:3:DFT_forces:R:3:FOUNDATION_forces:R:3 REF_energy=0.003907343289029086 charge=0 spin=1 external_field="0.0 0.0 0.0" config_type=ORCA_DFT source_file=C_DFTprod_cutcluster_0209.out orca_step=0 DFT_energy=-18719.35937390671 FOUNDATION_energy=-18719.36328125 pbc="F F F"
O       14.39152700      13.79429300       9.23595000      -0.00972849      -0.00961959      -0.00608740      -0.43888426      -0.25594696       0.25360309      -0.42915577      -0.24632737       0.25969049
H       14.45834100      13.41607700      10.10891900      -0.00394089       0.00114055       0.01284412       1.08095937      -0.05912550       0.89436725       1.08490026      -0.06026605       0.88152313
H       13.50553700      13.45592000       9.09891200       0.00730120       0.00753597       0.00096142      -0.66019548       0.25713301      -1.15120530      -0.66749668       0.24959704      -1.15216672
O       10.81008000      11.00197800      14.38317800      -0.01099164      -0.00164497      -0.01875723       0.30321767      -2.14530313      -0.84427059       0.31420931      -2.14365816      -0.82551336
H       11.24015000      10.23788300      13.92009400      -0.02075417       0.00784251       0.01365847      -0.13322861       1.12829873      -0.00492063      -0.11247444       1.12045622      -0.01857910
H       10.45111800      10.46665000      15.09830000       0.00228471      -0.00091138      -0.00748474      -0.43535280       0.51267240       0.57998883      -0.43763751       0.51358378       0.58747357
O       13.15909000       8.59494800      14.29794500       0.01043360      -0.01598118      -0.00111860      -0.47694085      -0.17627819      -0.68081444      -0.48737445      -0.16029701      -0.67969584
H       13.45820600       9.15641700      13.57017500      -0.00409057      -0.00294195       0.00357055       0.15216396      -0.02504975       0.39857542       0.15625453      -0.02210780       0.39500487
H       13.52301100       8.93757600      15.11134100       0.00595706       0.00428238      -0.00107404       0.27348312       0.32505133       0.18083506       0.26752606       0.32076895       0.18190910
O       10.88809000      13.79919200       8.74661000       0.00696908       0.00401892      -0.00070358      -0.57584436      -1.59082006      -0.47666914      -0.58281344      -1.59483898      -0.47596556
H       11.24417100      13.92087100       9.62136800       0.00185229       0.00016095      -0.00956277       0.09868368       0.11364652       0.69730123       0.09683139       0.11348557       0.70686400
H       10.52039400      12.87583500       8.79808700      -0.00566499      -0.00504165       0.00707251       0.50172783       1.40851290      -0.08704810       0.50739282       1.41355455      -0.09412061
O       12.67012400       8.73574100      10.68627400       0.00228994      -0.00899736      -0.01108172       0.83995818      -1.33840446       1.61283467       0.83766824      -1.32940710       1.62391639
H       12.17673300       8.39240300       9.95317800       0.00262830       0.01194143       0.00874545      -0.48813107      -0.06785810      -0.74112831      -0.49075937      -0.07979953      -0.74987376
H       12.87668300       7.90277400      11.20052700       0.00121064      -0.00483785       0.00283529      -0.28385233       1.42797389      -0.74363868      -0.28506297       1.43281174      -0.74647397
O       11.94259100      13.04526700      15.68414100       0.01297804      -0.00191354       0.00930783      -0.48755638      -0.95952081      -0.74702755      -0.50053442      -0.95760727      -0.75633538
H       12.64099200      13.41839200      15.13914000      -0.00119932       0.01209474      -0.00864569       0.13002065       0.30903876      -0.06963617       0.13121997       0.29694402      -0.06099048
H       11.55232500      12.33845400      15.09028600      -0.00829915      -0.00079642      -0.00475040       0.62336858       1.08601560       1.07601771       0.63166773       1.08681202       1.08076811
O       15.45335300      11.98046800      11.76320200      -0.00854004       0.00418235       0.00282309      -0.85700197      -1.82173656      -0.87650266      -0.84846193      -1.82591891      -0.87932575
H       15.32758300      11.10744800      11.28198200       0.01300718       0.01516255      -0.01193731       0.03189670       1.57425316       0.85413272       0.01888952       1.55909061       0.86607003
H       16.37010600      12.17153600      11.59124800      -0.00689253      -0.00990983       0.00144910       0.62256316       0.34233619      -0.00681692       0.62945569       0.35224602      -0.00826602
O       13.66279400      14.15065400      13.44252000      -0.01358824       0.00013965       0.00233708      -0.79368876       2.18291920      -1.96075000      -0.78010052       2.18277955      -1.96308708
H       13.43224100      14.89374500      12.75525900       0.01521356      -0.00985652      -0.00031082       0.64796175      -2.17117625       2.04517635       0.63274819      -2.16131973       2.04548717
H       14.09370400      13.47401100      12.91296500       0.00812320       0.00456474      -0.00475043       0.29307477      -0.14948323      -0.15094706       0.28495157      -0.15404797      -0.14619663
O       11.19927200      12.35195600      11.52741700      -0.01940299      -0.01276691      -0.02131721       1.83147215      -0.67218299       0.92152504       1.85087514      -0.65941608       0.94284225
H       12.00000000      12.00000000      12.00000000       0.01905584       0.00854491       0.01940127      -0.54622376       0.11742383      -1.36617140      -0.56527960       0.10887892      -1.38557267
H       10.81401700      12.65580300      12.34324400       0.00378802       0.00360791       0.02257589      -1.25365112       0.64761059       0.39318958      -1.25743914       0.64400268       0.37061369
27
Properties=species:S:1:pos:R:3:REF_forces:R:3:DFT_forces:R:3:FOUNDATION_forces:R:3 REF_energy=0.004100552847376093 charge=0 spin=1 external_field="0.0 0.0 0.0" config_type=ORCA_DFT source_file=C_DFTprod_cutcluster_0210.out orca_step=0 DFT_energy=-18719.079883822153 FOUNDATION_energy=-18719.083984375 pbc="F F F"
O       13.25439800       8.65703900      11.59878600       0.00658307       0.02202204      -0.02001125       0.50208691      -1.04979631       0.50531000       0.49550384      -1.07181835       0.52532125
H       12.55427900       9.25939000      11.41390400      -0.00724992      -0.00320967       0.00232782      -0.55307796       0.82993648      -0.11670948      -0.54582804       0.83314615      -0.11903730
H       14.06906600       9.04401700      11.24570800      -0.00322134      -0.02129094       0.00796560      -0.20716017      -0.11266894      -0.19145742      -0.20393883      -0.09137800      -0.19942302
O       12.14936100      13.03715000      15.11238400       0.00963576       0.00798386      -0.01512972      -0.20980404       0.38772624      -0.19571573      -0.21943980       0.37974238      -0.18058601
H       12.70710600      13.70706200      15.50758100      -0.00880811       0.00332694      -0.00207413       0.23679857       0.20627649       0.11795945       0.24560668       0.20294955       0.12003358
H       11.25222600      13.36911100      15.20172800       0.00208572       0.00175155       0.00937244      -0.10529697       0.00940808       0.05231069      -0.10738269       0.00765653       0.04293825
O       15.67892000      10.07316900      13.91989500      -0.00438497      -0.01788733       0.04913230       0.73763063       3.02467992      -2.00546746       0.74201560       3.04256725      -2.05459976
H       14.74868800       9.88912700      13.88966300       0.00693227      -0.01735744      -0.01048532      -0.90510927      -0.49484334       0.22644782      -0.91204154      -0.47748590       0.23693314
H       15.73515200      10.90383500      13.26734300      -0.00218777       0.03643146      -0.04109629       0.18419297      -2.95310339       2.13440315       0.18638074      -2.98953485       2.17549944
O       12.75562500      11.52158900      12.28450900      -0.03173033       0.01465553      -0.00397257       1.37965175      -1.08329552       1.15417262       1.41138208      -1.09795105       1.15814519
H       12.66426400      11.21397400      13.22837000       0.00173504      -0.01173069       0.01154906      -0.18802731       0.52879415      -1.31446713      -0.18976235       0.54052484      -1.32601619
H       12.00000000      12.00000000      12.00000000       0.01810759       0.00684704      -0.01289250      -1.10204560       0.63305475       0.13948359      -1.12015319       0.62620771       0.15237609
O       15.27445500       9.56774800       9.93630500       0.00453643      -0.00529511       0.01081109      -0.32314738       0.90896361      -0.25180507      -0.32768381       0.91425872      -0.26261616
H       14.61632600      10.16617100       9.48661800       0.00657727       0.00355510      -0.00102288       1.34817995      -0.70312740       0.99826204       1.34160268      -0.70668250       0.99928492
H       15.77294200      10.08216100      10.61809300      -0.01498314       0.00360261      -0.00151678      -0.82585182      -0.05336140      -0.87589665      -0.81086868      -0.05696401      -0.87437987
O       12.63763400      10.45808600      15.46892200       0.01129952      -0.03473911       0.01218963      -1.93955347      -0.77991757      -0.62821537      -1.95085299      -0.74517846      -0.64040500
H       12.53690400      11.42939900      15.45360300      -0.00664114       0.01404893       0.01189129      -0.09660741      -0.41544140       0.16182859      -0.08996627      -0.42949033       0.14993730
H       11.69730900      10.10744600      15.33642200      -0.00610899      -0.00274247       0.00188025       2.05552627       0.68445980       0.36230405       2.06163526       0.68720227       0.36042380
O       11.43715800      12.36436100       8.40302200      -0.00787619       0.00408764      -0.01169053       1.52599010      -1.76939564      -0.79203955       1.53386629      -1.77348328      -0.78034902
H       11.70794700      12.28683000       7.45500000       0.00317063       0.00567401       0.00725235      -0.58885209       0.49353445       0.90696658      -0.59202272       0.48786044       0.89971423
H       11.94618500      11.57434600       8.74328000       0.00324913      -0.01613708       0.00360819      -0.96576391       1.24577193      -0.06924130      -0.96901304       1.26190901      -0.07284949
O        8.03329400      10.86229700      11.21328300       0.00436671       0.00043126       0.00272838       0.36624910       0.65289565      -0.82891961       0.36188239       0.65246439      -0.83164799
H        8.09153400      11.14296500      10.26369500      -0.00231475       0.00106529      -0.00047459       0.06067454      -0.25119623       1.42900680       0.06298929      -0.25226152       1.42948139
H        8.58515300      11.48307600      11.72648000      -0.00167363       0.00278262      -0.00339967      -0.41729861      -0.38749700      -0.62035674      -0.41562498      -0.39027962      -0.61695707
O       16.13915300      11.66107300      11.71228700       0.03843756      -0.01568415      -0.00221741       0.73771866      -0.39661511      -0.38445410       0.69928110      -0.38093096      -0.38223669
H       16.93704000      12.02318300      11.31941900      -0.00772965       0.01014782      -0.00687457       0.29286441      -0.03133769       0.05262575       0.30059406      -0.04148551       0.05950032
H       15.57168700      12.40558100      11.82104400      -0.01180689       0.00765979       0.00214966      -0.99996786       0.87609529       0.03366433      -0.98816097       0.86843550       0.03151467
27
Properties=species:S:1:pos:R:3:REF_forces:R:3:DFT_forces:R:3:FOUNDATION_forces:R:3 REF_energy=0.004588056479406077 charge=0 spin=1 external_field="0.0 0.0 0.0" config_type=ORCA_DFT source_file=C_DFTprod_cutcluster_0214.out orca_step=0 DFT_energy=-18719.52275569352 FOUNDATION_energy=-18719.52734375 pbc="F F F"
O        9.51158300      11.78200300      14.16380900      -0.01059047       0.00981075       0.00881983      -0.09356584       1.58291716      -0.27839475      -0.08297537       1.57310641      -0.28721458
H       10.21755600      11.43663800      13.59362200      -0.00250553      -0.00638595       0.00059543       0.51735361       0.17674603       0.01876468       0.51985914       0.18313198       0.01816925
H        9.60317700      12.76935000      14.02318400       0.00379896       0.00342460       0.00357882      -0.32888603      -1.77969162       0.26415104      -0.33268499      -1.78311622       0.26057222
O       14.35351200      10.81163600      13.90079000       0.00336316       0.00474368       0.00263627      -1.95071694       0.02197070       0.34518235      -1.95408010       0.01722702       0.34254608
H       13.93933600      10.06463000      14.40069100       0.00160164       0.00324884      -0.00220965       0.66284258       0.86682019      -0.63173799       0.66124094       0.86357135      -0.62952834
H       13.53551400      11.34728100      13.65989600      -0.00322693       0.00041777       0.00379977       1.32617444      -1.00402635       0.25194437       1.32940137      -1.00444412       0.24814460
O       13.39050300       9.59110600       8.48087400       0.01574358      -0.00629885      -0.00610017       2.02946886       0.63343435       0.71834267       2.01372528       0.63973320       0.72444284
H       12.70934900       9.92762200       9.03236500      -0.00769059       0.00972666       0.00058149      -1.99870149       0.27291079       0.53544127      -1.99101090       0.26318413       0.53485978
H       14.10672700       9.96218400       9.05739100      -0.00824224      -0.00425350      -0.00113424      -0.11438942      -0.91223770      -1.18313476      -0.10614718      -0.90798420      -1.18200052
O       11.77054400      11.30789800      12.59946500       0.02430573       0.00477759      -0.01315167      -0.09047049      -0.65430518       1.11946056      -0.11477622      -0.65908277       1.13261223
H       11.81313500      10.42222200      12.17724100      -0.00660212      -0.00593487      -0.01139786      -0.17093554       0.47387620      -0.00551080      -0.16433342       0.47981107       0.00588706
H       12.00000000      12.00000000      12.00000000      -0.00147718       0.00643838      -0.00048120       0.25165713       0.34396524      -1.13127334       0.25313431       0.33752686      -1.13079214
O        8.26305700       9.86189700      12.18849300       0.00730588      -0.01155803      -0.02232834      -1.61680482       1.35717645       0.36804239      -1.62411070       1.36873448       0.39037073
H        7.34348400      10.27101400      12.18726800      -0.00480016      -0.00301667       0.02639318       1.61662988      -1.00096591      -0.12301495       1.62143004      -0.99794924      -0.14940813
H        8.69906200      10.47318300      12.81878200      -0.01039141       0.00622420      -0.01133922      -0.11335799      -0.21752830      -0.19248370      -0.10296658      -0.22375250      -0.18114448
O       10.47373400      10.57097300      10.07736500       0.02231238       0.00108053      -0.00725935       1.67636571       1.15246977       2.65075495       1.65405333       1.15138924       2.65801430
H       10.24559300      10.15978300       9.30042900      -0.00535696       0.00221444       0.00364769      -1.39112967      -1.22475886      -2.68711030      -1.38577271      -1.22697330      -2.69075799
H        9.75480900      11.07885000      10.46933800       0.00642550      -0.00944122       0.01336252      -0.14357617      -0.10657064      -0.17165411      -0.15000167      -0.09712942      -0.18501663
O       13.52306900      12.54256700      10.03241900      -0.00291743      -0.00910500      -0.00854270      -0.41349374       0.33915579       0.51885267      -0.41057631       0.34826079       0.52739537
H       14.19944600      11.89960800      10.21093600      -0.00140794       0.00234267       0.00459994       0.54433868      -0.30500865       0.29835690       0.54574662      -0.30735132       0.29375696
H       13.44137700      12.55077500       9.08511400      -0.00287465       0.00179771       0.01218259      -0.14547149       0.03266453      -0.64293278      -0.14259684       0.03086682      -0.65511537
O       11.13848000       8.68545800      12.29430300       0.01762316      -0.01952121       0.00037167      -1.90788987      -0.53956661       0.54575423      -1.92551303      -0.52004540       0.54538256
H       10.48567300       8.56759900      13.05450400      -0.01626181       0.00016873       0.00802048       1.26982213       0.21983175      -1.51961521       1.28608394       0.21966302      -1.52763569
H       10.55376700       8.64484800      11.49421100      -0.01529128       0.01865860      -0.00443092       0.66324496       0.26335405       0.97642586       0.67853624       0.24469545       0.98085678
O        9.31797300      13.18638600      11.04621800      -0.00853831      -0.00552898       0.01122196      -2.09382898      -0.53380960      -2.28152363      -2.08529067      -0.52828062      -2.29274559
H        8.77392500      13.33442300      10.16108100       0.01015000       0.01210621      -0.00261077       2.21035914       0.20603830       2.95614305       2.20020914       0.19393209       2.95875382
H        9.93643700      13.88996600      11.25591900      -0.00445541      -0.00613801      -0.00882604      -0.19503876       0.33513813      -0.71923073      -0.19058335       0.34127614      -0.71040469
27
Properties=species:S:1:pos:R:3:REF_forces:R:3:DFT_forces:R:3:FOUNDATION_forces:R:3 REF_energy=-0.010691095234506065 charge=0 spin=1 external_field="0.0 0.0 0.0" config_type=ORCA_DFT source_file=C_DFTprod_cutcluster_0220.out orca_step=0 DFT_energy=-18720.038034845235 FOUNDATION_energy=-18720.02734375 pbc="F F F"
O       11.20362500      11.68194800       8.77938800       0.01200973      -0.00962183      -0.00103169       1.05881559      -0.62664756       0.76685739       1.04680586      -0.61702573       0.76788908
H       11.25744000      12.26497700       8.02979900      -0.00120366      -0.01382840      -0.00042711      -0.00749158       0.39670562      -0.47530718      -0.00628792       0.41053402      -0.47488007
H       12.14539900      11.51422100       9.02683200      -0.00957052       0.02185075       0.00229754      -1.08012561       0.27197023      -0.18548588      -1.07055509       0.25011948      -0.18778342
O        9.24646200       9.34931500      12.36681800       0.00633837      -0.00917907       0.00295154       0.04157999      -1.17632396       1.65660349       0.03524162      -1.16714489       1.65365195
H       10.06253700       9.03397300      12.84681000      -0.01021806      -0.00027290       0.00434955      -1.35148803       0.34661019      -0.82618586      -1.34126997       0.34688309      -0.83053541
H        8.48540600       8.91051500      12.84930700      -0.00353376      -0.00480842      -0.00650955       1.31419691       0.78181303      -0.84061355       1.31773067       0.78662145      -0.83410400
O       13.02019700       9.92275100      14.95193800      -0.00134058      -0.00292433      -0.00486206      -0.19702550       0.01818999       0.04150830      -0.19568492       0.02111432       0.04637036
H       13.93403200      10.03461600      14.64540600       0.00224830       0.00336155       0.00029371      -0.53143524      -0.10624005      -0.14266219      -0.53368354      -0.10960160      -0.14295590
H       12.52689900       9.38861700      14.31326700       0.00005152       0.00566989       0.01094308       0.67417528       0.16407722       0.06424843       0.67412376       0.15840733       0.05330535
O       14.03265900       9.99173900       9.97516200      -0.00811621      -0.01205540       0.00651819       1.05030338       0.17605605      -0.96280652       1.05841959       0.18811145      -0.96932471
H       14.05113000       9.67084200       9.04849700       0.00568450       0.00574395      -0.00457748      -0.24755072       0.13321812       0.79270551      -0.25323522       0.12747417       0.79728299
H       14.91917300      10.41026800      10.05869100       0.00099159      -0.00219766      -0.00193268      -0.80586504      -0.29365260       0.12612748      -0.80685663      -0.29145494       0.12806016
O       13.56009500      14.19077000      10.00474600       0.00105624       0.01020661      -0.00014146       0.67197828       0.57327470      -0.64912220       0.67092204       0.56306809      -0.64898074
H       13.20573500      13.49002700      10.53164600      -0.00063505       0.00274837       0.00399750      -0.23481239      -1.11832285       0.92809838      -0.23417734      -1.12107122       0.92410088
H       12.78270800      14.67170300       9.74509500       0.00326856      -0.00704827       0.00003226      -0.39686898       0.51268397      -0.25851004      -0.40013754       0.51973224      -0.25854230
O       10.71632000      11.79058400      13.18420600       0.00129192      -0.01433481       0.01397250       0.93979340       0.65032964       0.75017993       0.93850148       0.66466445       0.73620743
H       11.08392400      11.55884700      14.06316000       0.01223463      -0.00507441       0.01191732      -0.42296126       0.02003054      -0.76177946      -0.43519589       0.02510495      -0.77369678
H       10.02252000      11.19449500      12.93161000      -0.00791849       0.01767543      -0.01714806      -0.75394155      -0.58266339       0.12545313      -0.74602306      -0.60033882       0.14260119
O        8.40603500      11.63261400      10.45665800      -0.01095922       0.01373370      -0.00843342       1.87876456      -1.17203371       0.27594588       1.88972378      -1.18576741       0.28437930
H        9.27831800      11.79221100      10.02902700       0.00114947      -0.00461728       0.00410826      -0.80409247       0.46749776      -0.15273814      -0.80524194       0.47211504      -0.15684640
H        8.70851000      10.81869600      10.93180800       0.00980390      -0.00475997       0.00846423      -0.97757386       0.64964300      -0.21217717      -0.98737776       0.65440297      -0.22064140
O       14.55856400      13.16408700      13.65100400       0.00876497       0.00502045      -0.01399127      -0.94461520      -1.22423570      -0.61991158      -0.95338017      -1.22925615      -0.60592031
H       13.96216600      12.63012400      13.03229300      -0.01859355      -0.01316863      -0.00374666       1.08161402       1.13290054       0.85375240       1.10020757       1.14606917       0.85749906
H       14.81959500      13.94472500      13.16175400       0.00105236      -0.00098892       0.01373954      -0.06453588       0.08480224      -0.23924677      -0.06558824       0.08579116      -0.25298631
O       12.90919400      11.96100900      11.69197300       0.00484320       0.02206201       0.00720954       1.07660099      -0.12587505      -0.81843316       1.07175779      -0.14793706      -0.82564270
H       13.06522100      11.15764300      11.15753600      -0.00860164       0.00012201      -0.00767547      -0.30064127       0.39878106       0.37427315      -0.29203963       0.39865905       0.38194862
H       12.00000000      12.00000000      12.00000000       0.00990160      -0.00331463      -0.02031806      -0.66679786      -0.35258888       0.38922617      -0.67669946      -0.34927425       0.40954423
27
Properties=species:S:1:pos:R:3:REF_forces:R:3:DFT_forces:R:3:FOUNDATION_forces:R:3 REF_energy=0.017130990432633553 charge=0 spin=1 external_field="0.0 0.0 0.0" config_type=ORCA_DFT source_file=C_DFTprod_cutcluster_0222.out orca_step=0 DFT_energy=-18720.691853384567 FOUNDATION_energy=-18720.708984375 pbc="F F F"
O       10.72053700      12.43944500       9.66726000       0.01132161       0.00137171       0.02155742      -0.58143019      -0.31707484       0.12117620      -0.59275180      -0.31844655       0.09961878
H        9.98172000      12.12510600      10.24321300       0.00753652      -0.00098006      -0.03252495       0.83366453       0.10342001      -0.56490380       0.82612801       0.10440007      -0.53237885
H       11.36878300      11.71761400       9.65059600      -0.01716959      -0.00118939      -0.00985889      -0.31345483       0.30825277       0.24565561      -0.29628524       0.30944216       0.25551450
O        8.79773100      11.54656200      11.56849600       0.00455938       0.02397461       0.03812789       0.64333562       0.00365308       0.35432308       0.63877624      -0.02032153       0.31619519
H        8.89653600      10.57300300      11.47547000      -0.00345322      -0.00033801      -0.00169282      -0.67105957       0.48235370      -0.27191465      -0.66760635       0.48269171      -0.27022183
H        8.03762800      11.91315900      11.11037000      -0.00358514      -0.01533616      -0.01088742      -0.18934150      -0.62053615      -0.05334844      -0.18575636      -0.60519999      -0.04246102
O       14.68835900      13.30728200       9.91747300       0.00240609       0.00628066      -0.00871139       0.00641470       0.08337337      -0.14280530       0.00400861       0.07709271      -0.13409391
H       15.00174600      14.09305600      10.36873500       0.00284905       0.00068317       0.00374611      -0.00628568       0.18256171       1.06903942      -0.00913473       0.18187854       1.06529331
H       15.03616900      13.45601500       9.04584600       0.00016134      -0.00588921       0.00095568       0.06513613      -0.25310877      -0.82231923       0.06497479      -0.24721956      -0.82327491
O       11.50105700      12.60004300      12.57983300       0.00623157      -0.03184386       0.02500356       0.02841599      -0.19852250       0.51475582       0.02218442      -0.16667864       0.48975226
H       10.58880300      12.67360000      12.25208800       0.01796215       0.00163192      -0.01756711       0.52581542      -0.20802936      -0.11039331       0.50785327      -0.20966128      -0.09282620
H       12.00000000      12.00000000      12.00000000      -0.02075255       0.00997887       0.00184254      -0.46165642       0.22475367      -0.25160601      -0.44090387       0.21477480      -0.25344855
O        9.60012800       8.76654500      11.37575700       0.00734187      -0.02323680      -0.02479248       0.31831319      -1.52376728       0.39172940       0.31097132      -1.50053048       0.41652188
H       10.37257100       9.02825100      11.91754200       0.01310264       0.01818110       0.00903651      -0.01181571      -0.20665140      -0.06429322      -0.02491835      -0.22483250      -0.07332973
H        9.57671200       7.77113300      11.48919100      -0.01513100      -0.00242839       0.01481985      -0.12557449       1.86705067      -0.22808340      -0.11044349       1.86947906      -0.24290325
O       11.72828000       9.37915600      13.26327800      -0.00109797       0.00504249      -0.00184165       0.75716675      -0.26618371      -0.33562355       0.75826472      -0.27122620      -0.33378190
H       12.69987000       9.43208000      13.03867300      -0.00380787       0.00374980       0.00044921      -1.78259727       0.58636321       0.48830169      -1.77878940       0.58261341       0.48785248
H       11.35955700      10.21745500      13.59674600       0.00107838      -0.00381722      -0.01125775       0.92875828      -0.14129241      -0.28193079       0.92767990      -0.13747519      -0.27067304
O       15.55848600      14.76082400      12.42291000       0.00817402      -0.00943864       0.00561593      -1.05022733      -1.85447777       0.57938395      -1.05840135      -1.84503913       0.57376802
H       14.86695700      14.34582700      13.02562500      -0.00039250       0.00482087       0.00421519       1.11603611       0.20313491      -0.75655549       1.11642861       0.19831404      -0.76077068
H       15.37085400      15.66774400      12.55214500      -0.01022298       0.00243707      -0.00116670      -0.06748771       1.65994032       0.08240371      -0.05726473       1.65750325       0.08357041
O       13.16737200      11.13555700      10.61574900      -0.02101413       0.02159502       0.00417260      -0.34568269      -1.74752758      -0.98227497      -0.32466856      -1.76912260      -0.98644757
H       13.56333600      11.95145000      10.33179100       0.00562036      -0.01182785       0.00274371       0.73001224       1.41349492       0.05047708       0.72439188       1.42532277       0.04773337
H       13.31770800      10.58965300       9.80922000       0.00832784      -0.00160241      -0.00130035      -0.24277505       0.15882945       1.07666264      -0.25110289       0.16043186       1.07796299
O       13.59675000      13.59150500      14.14603000      -0.02134523       0.00378459      -0.01106979      -0.44987747      -0.32930265       0.57551305      -0.42853224      -0.33308724       0.58658284
H       12.81031400      13.38008500      13.61241200       0.00870992       0.00969115       0.00405995      -0.10061926       0.05150969      -0.24347593      -0.10932918       0.04181854      -0.24753588
H       13.35732700      13.21780800      15.01296600       0.01258948      -0.00529507      -0.00367500       0.44681611       0.33778292      -0.43989362       0.43422663       0.34307799      -0.43621862
27
Properties=species:S:1:pos:R:3:REF_forces:R:3:DFT_forces:R:3:FOUNDATION_forces:R:3 REF_energy=0.0041577589327062014 charge=0 spin=1 external_field="0.0 0.0 0.0" config_type=ORCA_DFT source_file=C_DFTprod_cutcluster_0226.out orca_step=0 DFT_energy=-18719.845451616067 FOUNDATION_energy=-18719.849609375 pbc="F F F"
O       13.02077500      11.09436200       8.65225300      -0.00391959       0.01092522       0.01512840       0.00395477      -0.39420254      -0.22155768       0.00787436      -0.40512776      -0.23668608
H       12.66011600      11.66434600       9.34158900       0.01058740      -0.00107766      -0.01274435       0.09410860       0.05443252       0.09397285       0.08352120       0.05551018       0.10671720
H       13.25347200      11.62412300       7.88629400      -0.00184317      -0.00189513      -0.00955634      -0.07196349       0.17708798       0.17036316      -0.07012032       0.17898311       0.17991950
O       14.16888000       9.62495200      11.72912900       0.00992529       0.00962774       0.00175194      -1.42183502       1.09911994       2.00740437      -1.43176031       1.08949220       2.00565243
H       14.15212200       9.06512100      10.98137000      -0.00682552      -0.00666371       0.00135936      -0.17394198      -0.78326473      -1.34147297      -0.16711646      -0.77660102      -1.34283233
H       13.22257000       9.67982700      12.06322600      -0.00330161      -0.01074514      -0.00247079       1.78352858      -0.33017451      -0.72460192       1.78683019      -0.31942937      -0.72213113
O       11.98219100      12.33062100      11.09206200       0.00068459      -0.00534982      -0.01310712      -0.05972627       0.84944570      -0.54514050      -0.06041086       0.85479552      -0.53203338
H       12.00000000      12.00000000      12.00000000      -0.00240617       0.01239422       0.02666748       0.16642917       0.24093789       0.12498144       0.16883534       0.22854367       0.09831396
H       12.31562400      13.25130200      11.09609200      -0.00285131       0.00070485       0.00601430      -0.04442193      -0.93199936       0.39174606      -0.04157062      -0.93270421       0.38573176
O       10.05737800      14.09082900      12.58048300       0.00533748      -0.00984546      -0.01535805      -0.22357975      -0.10841998       0.96185748      -0.22891723      -0.09857452       0.97721553
H       10.41767800      14.30239400      11.71792500       0.00349886      -0.00490534       0.00687781      -0.21083053       0.40957702       0.00158025      -0.21432939       0.41448236      -0.00529756
H        9.65177500      14.86605700      13.00979000      -0.00044128       0.00761717       0.00880397       0.37910703      -0.28875542      -0.77331405       0.37954831      -0.29637259      -0.78211802
O       12.81321300      15.07796200      14.29551500      -0.00342518       0.00062485       0.00092157      -0.34700027       1.44260223      -0.38794170      -0.34357509       1.44197738      -0.38886327
H       13.16720400      14.26454700      14.60208600       0.01243652       0.00005813       0.00688396       1.44007195      -1.17606942       0.95970104       1.42763543      -1.17612755       0.95281708
H       12.00117000      14.76530400      13.93045400      -0.01047395      -0.00412300      -0.00845872      -1.19819854       0.08376351      -0.64257370      -1.18772459       0.08788651      -0.63411498
O        9.50993400      10.39938000      10.42973600      -0.01380355       0.00672506      -0.00748748       0.48012172       0.70305942       0.25975343       0.49392527       0.69633436       0.26724091
H        9.77589500      11.29350800      10.14867700       0.00075086      -0.01335767       0.00094028       0.12549180      -0.49291137       0.33367820       0.12474094      -0.47955370       0.33273792
H        8.85761800      10.14810300       9.78732000       0.00731751      -0.00318158       0.00639096      -0.47765968      -0.30735869      -0.42693922      -0.48497719      -0.30417711      -0.43333018
O       12.00523400      11.50622500      14.19827000      -0.02560251       0.01415523      -0.00942418      -2.32064431      -0.86620919      -0.23529293      -2.29504180      -0.88036442      -0.22586875
H       11.82303200      10.53142100      14.11177200       0.02068526      -0.01823268      -0.00803719       0.45292968       0.96143242       0.02127341       0.43224442       0.97966510       0.02931060
H       11.09964200      11.89435500      14.35189400       0.00659886       0.01252677       0.00127597       1.38123575      -0.39312566      -0.24362238       1.37463689      -0.40565243      -0.24489835
O       14.15293100      12.80992200      14.98917000      -0.00586518      -0.00196109       0.01469142      -0.01859885      -0.87802742       1.53506214      -0.01273367      -0.87606633       1.52037072
H       14.06455900      12.33411400      15.86599500       0.00869432       0.00502960      -0.00682136       0.20527735       0.91375188      -1.54923221       0.19658303       0.90872228      -1.54241085
H       13.47345100      12.36958200      14.44773600       0.00295264      -0.00901315      -0.00364706       0.33449546      -0.19094474       0.23344611       0.33154282      -0.18193159       0.23709317
O       11.79501600       8.76548300      13.14531200      -0.02514974      -0.01049803      -0.00176446      -1.16412047       0.18329247      -0.62382845      -1.13897073       0.19379050      -0.62206399
H       12.11696100       7.86312700      13.17495000       0.01010786       0.01369491       0.00478584       0.27598609      -0.16878918       0.14355864       0.26587823      -0.18248409       0.13877280
H       11.01783300       8.71830300      12.54420100       0.00633151       0.00676546      -0.00361617       0.60978318       0.19174919       0.47713919       0.60345167       0.18498373       0.48075536
27
Properties=species:S:1:pos:R:3:REF_forces:R:3:DFT_forces:R:3:FOUNDATION_forces:R:3 REF_energy=0.02108926817891188 charge=0 spin=1 external_field="0.0 0.0 0.0" config_type=ORCA_DFT source_file=C_DFTprod_cutcluster_0227.out orca_step=0 DFT_energy=-18719.45937948182 FOUNDATION_energy=-18719.48046875 pbc="F F F"
O        8.41864500      12.01392100      10.34747700       0.01238603       0.00169115       0.00191253       0.33268226      -1.49751992       0.30111420       0.32029623      -1.49921107       0.29920167
H        8.70957300      11.06485500      10.27401900      -0.00761315      -0.00052090       0.00126552      -0.39617535       1.49412303       0.01464418      -0.38856220       1.49464393       0.01337866
H        9.11107100      12.44731100      10.85965000       0.00487681      -0.00277706      -0.00047958       0.12637122       0.01442343      -0.41121903       0.12149441       0.01720049      -0.41073945
O       11.60056100      10.38510600      12.52339700       0.02717474      -0.00681977      -0.00183075       1.14549807       0.52906437      -0.91533851       1.11832333       0.53588414      -0.91350776
H       10.72765700      10.25518300      12.84570700      -0.01102193      -0.00137444       0.00830240      -1.25011154      -0.63123991      -0.09422544      -1.23908961      -0.62986547      -0.10252784
H       11.80543200       9.86996800      11.71941100      -0.00952745      -0.00787872      -0.02227664      -0.16233330      -0.17011073       0.21662836      -0.15280585      -0.16223201       0.23890500
O       12.60938800      10.07294500      15.05335700      -0.00934527       0.00520055       0.01303183      -0.80703304      -1.06878550      -2.13371790      -0.79768777      -1.07398605      -2.14674973
H       12.30317100      10.86250500      15.46133100       0.01911576      -0.01253876       0.01502378      -0.32110407       1.30173245       0.94433351      -0.34021983       1.31427121       0.92930973
H       12.10578100      10.10472500      14.17885100      -0.00062809       0.00051594      -0.01354874       1.57836225      -0.28466084       1.70222186       1.57899034      -0.28517678       1.71577060
O        9.34495800      12.99879400      13.88821100       0.01444733       0.00221208       0.00814244      -0.32459882      -0.65983727      -1.83159927      -0.33904615      -0.66204935      -1.83974171
H        9.18736300      12.22453700      13.27730200      -0.01450426       0.01359887      -0.01223732       0.02744663       1.18302507       1.06606173       0.04195089       1.16942620       1.07829905
H        9.04300700      13.76359800      13.35321900      -0.01524206      -0.00904259      -0.00213337       0.11675463      -0.51077863       0.60508418       0.13199669      -0.50173604       0.60721755
O       12.22025200      12.98258700      11.91224500       0.00508789       0.00288985      -0.02712446      -0.92142662      -1.04899289       0.55871541      -0.92651451      -1.05188274       0.58583987
H       12.00000000      12.00000000      12.00000000      -0.01124329       0.02501936       0.02768142       0.49278497       1.16654975       0.18012656       0.50402826       1.14153039       0.15244514
H       11.45261300      13.41124600      12.32044500      -0.01710766      -0.02755369       0.01582728       0.29147226      -0.03705577       0.23967275       0.30857992      -0.00950208       0.22384547
O       13.18192000       9.41098300      10.06197000      -0.01092624      -0.00080429       0.00918702       1.44134558       0.85398735      -0.13472720       1.45227182       0.85479164      -0.14391422
H       14.13779300       9.32072000      10.38801200       0.01231342      -0.00501535       0.01140401      -2.06809038       0.49253532      -0.86942246      -2.08040380       0.49755067      -0.88082647
H       13.15885600      10.14194200       9.37896800      -0.00457263       0.00991269      -0.01102052       0.38291514      -1.19118241       1.23898473       0.38748777      -1.20109510       1.25000525
O       11.60703800      12.85457300      15.65531400      -0.01005518       0.00426716      -0.00846688       1.56313658       0.54951930      -0.43796385       1.57319176       0.54525214      -0.42949697
H       12.42627300      13.28385900      15.26007100      -0.01117052      -0.00462426      -0.00889614      -1.83514513      -0.83782442       0.52942088      -1.82397461      -0.83320016       0.53831702
H       10.88433300      12.86814300      15.00760300       0.02425386       0.00254587       0.01395776       0.33096842       0.33012576      -0.02837110       0.30671456       0.32757989      -0.04232886
O       15.00659800      12.78760800      11.87052900       0.03107994       0.01014764       0.01663588      -1.44293112      -0.56257402       1.04224585      -1.47401106      -0.57272166       1.02560997
H       14.16318000      13.07053400      12.31686800      -0.01513333      -0.01332223       0.00827716       1.10456066      -0.46242857      -0.81947579       1.11969399      -0.44910634      -0.82775295
H       15.41127400      13.58967600      11.58987400      -0.00828101      -0.00437994      -0.01742108       0.51287470       0.94506519      -0.34757764       0.52115571       0.94944513      -0.33015656
O       11.49922800      13.56608100       9.45097600      -0.01612619       0.01762704       0.01552562      -0.06232319       1.00205205      -0.59645422      -0.04619700       0.98442501      -0.61197984
H       11.71090000      13.37282000      10.39220700       0.01374623       0.00459088      -0.02481041       0.49103400       0.54970313      -0.74007914       0.47728777       0.54511225      -0.71526873
H       11.79644100      14.47873200       9.20044500       0.00801679      -0.00356782      -0.01592930      -0.34693471      -1.44891537       0.72091727      -0.35495150      -1.44534755       0.73684657
27
Properties=species:S:1:pos:R:3:REF_forces:R:3:DFT_forces:R:3:FOUNDATION_forces:R:3 REF_energy=-0.021527454304305138 charge=0 spin=1 external_field="0.0 0.0 0.0" config_type=ORCA_DFT source_file=C_DFTprod_cutcluster_0228.out orca_step=0 DFT_energy=-18719.853558704304 FOUNDATION_energy=-18719.83203125 pbc="F F F"
O       10.12160900      12.34621500       9.82103100       0.02804332       0.00902373       0.01275964      -0.25831119      -0.89344489       0.51292165      -0.28635451      -0.90246862       0.50016201
H       10.42552200      12.97699100      10.47918400      -0.01083913      -0.00095882      -0.00247468       0.14764011       0.42579071      -0.06679192       0.15847924       0.42674953      -0.06431724
H       10.22248800      12.74235000       8.96555300      -0.01547868      -0.00658444      -0.00987034       0.05238772       0.42816013      -0.46185239       0.06786640       0.43474457      -0.45198205
O       12.03933300       9.58751800       9.74741000       0.01252775      -0.00451589      -0.00338035       0.92643575       0.62625938       0.40189559       0.91390800       0.63077527       0.40527594
H       11.15870000       9.91549500       9.96256300      -0.00379015       0.01190510      -0.00620755       0.15472679       0.11593095      -0.01149479       0.15851694       0.10402585      -0.00528724
H       12.67897200      10.19171000      10.20191600      -0.00322181       0.00271992       0.00509935      -0.93052709      -0.69177850      -0.68400759      -0.92730528      -0.69449842      -0.68910694
O       15.16680800      11.04850800      13.16402300      -0.02118273       0.02269479       0.02110572      -1.97906752      -0.76246152      -1.33555989      -1.95788479      -0.78515631      -1.35666561
H       14.26321500      11.34723000      13.42149200       0.01158233      -0.00340497      -0.01068368       1.02469499       0.46259600       0.60859672       1.01311266       0.46600097       0.61928040
H       14.83459500      10.45644800      12.44074900      -0.00751452      -0.02236216      -0.01965420       1.10135146       0.36089267       0.67957897       1.10886598       0.38325483       0.69923317
O       13.03166200      12.76895600      14.12645600       0.01400787      -0.01437742       0.00593285       0.00602286       0.25675928      -0.20527555      -0.00798501       0.27113670      -0.21120840
H       12.41618000      12.47204400      13.38665500       0.01099112       0.01496018      -0.00874544       0.24815523       0.51907147       0.88419550       0.23716411       0.50411129       0.89294094
H       12.77316000      13.61408300      14.51671600      -0.00355739      -0.00724720      -0.00488515      -0.24938705      -0.44064315      -0.08885193      -0.24582966      -0.43339595      -0.08396678
O       12.00000000      12.00000000      12.00000000      -0.03570827      -0.01057639       0.00104749       1.22526280       2.00237498      -0.50741244       1.26097107       2.01295137      -0.50845993
H       12.50652600      12.50262200      11.29224800       0.00178595       0.02886099      -0.01627577      -0.94880162      -1.26746422       0.72069698      -0.95058757      -1.29632521       0.73697275
H       11.55535200      11.23955400      11.67420600       0.02329651       0.00017500       0.02138870      -0.62872800      -1.05662429      -0.56854803      -0.65202451      -1.05679929      -0.58993673
O       13.90795200      14.88003100      12.11926000       0.02247424       0.00320089       0.00210979       0.34763421      -0.28599894      -0.15062264       0.32515997      -0.28919983      -0.15273243
H       13.55689100      14.17338200      12.66769800      -0.00117352      -0.00783371       0.01071035      -0.61137506      -0.20441814       0.87346577      -0.61020154      -0.19658443       0.86275542
H       14.66970700      14.38189000      11.80989100      -0.01136685       0.00304644       0.00922452       0.51213437       0.41516881      -0.40609451       0.52350122       0.41212237      -0.41531903
O       10.40549000       9.44474100      12.37900400      -0.00668955      -0.01897992      -0.00326942      -0.18029142       0.46661248      -0.76013498      -0.17360187       0.48559240      -0.75686556
H        9.51331800       9.56719600      12.01725800      -0.00334218       0.00243912       0.00244692       0.30636296      -0.17079937       0.39882693       0.30970514      -0.17323849       0.39638001
H       10.32328500       9.01825900      13.22807100       0.00544364       0.00703980       0.00604153      -0.19097004      -0.13812533       0.31847141      -0.19641368      -0.14516513       0.31242988
O       11.77691400      14.88309000      10.42473600      -0.01084718      -0.01536065       0.00131422       0.00989726       0.21999780       2.50285059       0.02074444       0.23535845       2.50153637
H       12.04487000      14.79325600       9.54478600       0.00478899       0.00566813      -0.00558347       0.68670499      -0.05716298      -2.03744525       0.68191600      -0.06283111      -2.03186178
H       12.60973300      15.03619700      10.96037900      -0.00681300       0.00700180      -0.02014225      -0.85814251      -0.20928982      -0.59870034      -0.85132951      -0.21629162      -0.57855809
O       13.89269900      12.35328400       9.93584800      -0.00404463      -0.00234333       0.02243411      -0.81126127       0.54295465      -1.80305112      -0.80721664       0.54529798      -1.82548523
H       14.83730000      12.42744100      10.08057200       0.00803673      -0.00220908      -0.00871585       0.25363487      -0.00067970      -0.17736736       0.24559814       0.00152938      -0.16865151
H       13.69542600      12.64086700       8.98840600       0.00259125      -0.00198208      -0.00172699       0.64381647      -0.66367845       1.96171057       0.64122522      -0.66169637       1.96343756
27
Properties=species:S:1:pos:R:3:REF_forces:R:3:DFT_forces:R:3:FOUNDATION_forces:R:3 REF_energy=-0.01826262829490588 charge=0 spin=1 external_field="0.0 0.0 0.0" config_type=ORCA_DFT source_file=C_DFTprod_cutcluster_0231.out orca_step=0 DFT_energy=-18720.092481378295 FOUNDATION_energy=-18720.07421875 pbc="F F F"
O       15.05173500      12.30831800      13.46050600       0.01325285       0.02434599       0.00476471       1.43612027      -0.41388125      -1.27474662       1.42286742      -0.43822724      -1.27951133
H       15.98184800      12.02651900      13.60870500       0.00527935      -0.01262498      -0.00300985      -0.90327437       0.27433580       0.31690068      -0.90855372       0.28696078       0.31991053
H       15.08098300      12.43610000      12.47983500      -0.01410377       0.00348706       0.00208811      -0.60522395      -0.14133525       0.90444891      -0.59112018      -0.14482231       0.90236080
O       12.05028900       9.44435800      13.92128200      -0.00591863       0.01937615      -0.00486486       1.67302477       2.59380018       0.06174849       1.67894340       2.57442403       0.06661335
H       12.26929000      10.43909500      14.08746300      -0.00058728      -0.01762826       0.00287971      -1.20463150      -2.06674487      -0.46845940      -1.20404422      -2.04911661      -0.47133911
H       12.97676100       9.14823000      13.86429400       0.00317524       0.00013640      -0.00222959      -0.44011571      -0.42245707       0.09689064      -0.44329095      -0.42259347       0.09912023
O       10.93532800      13.30992400       8.94922300       0.01299319      -0.01271555       0.00858214       0.13150283      -0.16825491      -0.36519680       0.11850964      -0.15553936      -0.37377894
H       10.57414100      12.41791200       9.16950000       0.00119267       0.00676916      -0.00231615      -0.17853819       0.63063339      -0.62369213      -0.17973086       0.62386423      -0.62137598
H       10.88679100      13.51134400       7.99372300      -0.01030507      -0.00191120      -0.00212872      -0.16267320      -0.56399826       0.93625248      -0.15236813      -0.56208706       0.93838120
O        9.60800800      10.90570200       9.72671500      -0.00909652       0.01013030      -0.01230181      -0.09428555      -0.04039075       0.42556270      -0.08518903      -0.05052105       0.43786451
H        8.89264300      11.00652600      10.38425300       0.00091257      -0.00404068       0.00764542       0.62648358      -0.05246254      -0.46859480       0.62557101      -0.04842186      -0.47624022
H       10.37383700      10.51331100      10.20579500       0.01497472      -0.00585938       0.00517455      -0.57620632       0.26914310       0.09690267      -0.59118104       0.27500248       0.09172812
O       11.68671600      12.40671400      12.84158000      -0.01023716      -0.02410660       0.00731109      -0.64711982       0.14250047      -0.85526545      -0.63688266       0.16660707      -0.86257654
H       12.00000000      12.00000000      12.00000000      -0.00283868      -0.01668109      -0.00407662      -0.39745746       0.66615807       0.78119324      -0.39461878       0.68283916       0.78526986
H       11.02613100      13.10373200      12.58011600       0.01478811       0.02331488      -0.02068087       1.17672356      -0.83659060       0.06823647       1.16193545      -0.85990548       0.08891734
O       11.90073300      10.01106200      10.91745000      -0.01152873       0.04048156      -0.01871906       0.31488514      -1.20925141      -2.15433393       0.32641387      -1.24973297      -2.13561487
H       11.89624000       9.57032400      11.76761300       0.00119525      -0.01031932       0.02878759      -0.08164960      -0.24275180       0.92149470      -0.08284485      -0.23243248       0.89270711
H       11.99176300       9.28089600      10.23212400       0.00966118      -0.01401863      -0.01173849      -0.06801412       1.23666611       1.38775556      -0.07767530       1.25068474       1.39949405
O       14.68591500      11.52764200      10.37183100      -0.00352595       0.00112225       0.01417881       1.95215871       0.17037637      -1.71469289       1.95568466       0.16925412      -1.72887170
H       15.52847100      11.72839200       9.81611200      -0.00174063      -0.00690349      -0.00327526      -2.38189858      -0.62126352       1.33438696      -2.38015795      -0.61436003       1.33766222
H       14.12758900      10.94920300       9.81111200       0.00153781       0.00135283      -0.00009678       0.49432198       0.58114551       0.50944557       0.49278417       0.57979268       0.50954235
O       13.56925600      14.59848500      14.19207900       0.00334728      -0.01212776       0.01205605      -1.29808771      -1.02319706       0.14287272      -1.30143499      -1.01106930       0.13081667
H       12.58267800      14.41342400      14.23608500      -0.00580502       0.01205013      -0.00821031       2.02584648       0.13815459      -0.19878311       2.03165150       0.12610446      -0.19057280
H       14.00963400      13.70951700      14.12043500       0.00766118      -0.00326679      -0.01170908      -0.70629160       1.06858506       0.00019772      -0.71395278       1.07185185       0.01190680
O       11.44739300      14.95441800      11.12201800       0.00783015       0.00639679      -0.01342343       0.64517987       0.03927725       0.14009176       0.63734972       0.03288046       0.15351519
H       11.29267200      14.37721900      10.34256900      -0.01192185       0.00266019       0.01278794       0.42460183       0.42115167       0.22281197       0.43652368       0.41849148       0.21002403
H       12.41344800      15.12339000      11.21872100      -0.01019241      -0.00941990       0.01252465      -1.15538134      -0.42934824      -0.22342811      -1.14518893      -0.41992834      -0.23595276
27
Properties=species:S:1:pos:R:3:REF_forces:R:3:DFT_forces:R:3:FOUNDATION_forces:R:3 REF_energy=0.028677096550381975 charge=0 spin=1 external_field="0.0 0.0 0.0" config_type=ORCA_DFT source_file=C_DFTprod_cutcluster_0234.out orca_step=0 DFT_energy=-18720.27991665345 FOUNDATION_energy=-18720.30859375 pbc="F F F"
O       11.04903000      13.99773400       9.84616500      -0.00644557       0.00633975       0.00041004      -1.31471257       0.59921595      -1.36327104      -1.30826700       0.59287620      -1.36368108
H       11.55349700      13.56357600      10.50450900      -0.00139659      -0.01379229      -0.00146661       0.61726988      -0.92643477       1.40055718       0.61866647      -0.91264248       1.40202379
H       10.21980300      13.48780600       9.75433200       0.00936530      -0.00195471       0.00409663       0.79546467       0.13762967       0.15825054       0.78609937       0.13958438       0.15415391
O       10.24274800       9.87909000      12.27541000       0.01128190      -0.02213598       0.02374360      -0.46026761      -2.22710109       1.03768811      -0.47154951      -2.20496511       1.01394451
H        9.71724100       9.80540300      13.10414000       0.00028939       0.00595834      -0.00264332       0.21899291       0.64536144      -0.68248746       0.21870352       0.63940310      -0.67984414
H       10.50604100       8.92204500      12.19512900       0.00063952       0.00738877      -0.00862128       0.04103486       1.37670094      -0.33960671       0.04039534       1.36931217      -0.33098543
O       13.04547300      11.22297300      14.75558600      -0.01025332      -0.02032610      -0.02425451      -0.61347539      -0.66140261       0.65853917      -0.60322207      -0.64107651       0.68279368
H       13.37887000      10.30465300      14.81912800       0.00437430       0.00876229       0.00286237      -0.33329984       0.79511099       0.07001742      -0.33767414       0.78634870       0.06715505
H       12.33668000      11.31833200      15.44256700       0.00014501       0.01095175       0.00817741       0.94411980      -0.07895478      -0.82898646       0.94397479      -0.08990653      -0.83716387
O        9.16777400      11.38787500      10.08531900      -0.00952398      -0.01303526      -0.01443545      -1.06571483      -0.39792257      -0.56626896      -1.05619085      -0.38488731      -0.55183351
H        8.32641800      11.29477900       9.56527500       0.00923770      -0.00587452       0.01604403       1.28922337      -0.11267629       0.80347813       1.27998567      -0.10680177       0.78743410
H        9.30495200      10.54960000      10.57962100      -0.00718614       0.01674185      -0.00822477      -0.18815977       0.73453281      -0.33047317      -0.18097363       0.71779096      -0.32224840
O       12.00000000      12.00000000      12.00000000       0.02037288      -0.00300297       0.00560356      -0.05797370      -0.16506664       0.32191808      -0.07834658      -0.16206367       0.31631452
H       12.61392500      11.84912000      12.73207200      -0.02876803      -0.01451352      -0.00719475       0.33599785       0.19781128       0.04237101       0.36476588       0.21232480       0.04956576
H       11.35698100      11.28870400      12.16947900       0.01987463       0.01375345       0.00140416      -0.04653579       0.10149035      -0.37709797      -0.06641042       0.08773690      -0.37850213
O        7.59570800      12.58482100      12.23273000      -0.00268864       0.01955360      -0.00997900      -2.01120662       0.55494875       0.00383773      -2.00851798       0.53539515       0.01381673
H        8.30451200      12.58014300      11.60640900      -0.00370620       0.00374706       0.00148083       0.86879434      -0.19684018      -0.77572178       0.87250054      -0.20058724      -0.77720261
H        6.81330900      12.89048500      11.70253000      -0.00246219      -0.00904367       0.00646185       1.13051255      -0.41393427       0.88900804       1.13297474      -0.40489060       0.88254619
O       13.42159800      10.62205500       9.68263200       0.01079005       0.02471939       0.00681922       0.58170879      -0.10695898      -0.53916690       0.57091874      -0.13167837      -0.54598612
H       14.08713000      11.23373800       9.32474900      -0.00443639      -0.01442144      -0.00588287      -0.36008524      -0.21630970       0.16248900      -0.35564885      -0.20188826       0.16837187
H       12.95264900      11.13681000      10.33856200      -0.00077249      -0.00117858      -0.00511189      -0.26879991       0.35626535       0.44379090      -0.26802742       0.35744393       0.44890279
O       10.98370000      13.22490600      14.98448300      -0.03075065       0.00233451       0.01657382      -1.72354330       1.03784505       0.65970722      -1.69279265       1.03551054       0.64313340
H       10.16612200      13.67136500      14.66155600       0.01358006       0.00253046       0.00363021       0.70263503      -0.28867942       0.76277309       0.68905497      -0.29120988       0.75914288
H       11.26836400      12.84854600      14.17823200       0.00737148      -0.00335285      -0.00429100       0.98233282      -0.75809553      -1.52331060       0.97496134      -0.75474268      -1.51901960
O       13.11817500      13.17221200       7.91112700      -0.00555363      -0.01284259      -0.00403850       0.14127735      -0.45216339      -0.14159174       0.14683098      -0.43932080      -0.13755324
H       12.48932500      13.49394700       8.57245000       0.00738070      -0.00074543      -0.00298211      -0.25040721       0.07051030      -0.08788381      -0.25778791       0.07125573      -0.08490170
H       12.82468100      12.26876400       7.71280500      -0.00075926       0.01343889       0.00181825       0.04481757       0.39511729       0.14144092       0.04557683       0.38167840       0.13962267
27
Properties=species:S:1:pos:R:3:REF_forces:R:3:DFT_forces:R:3:FOUNDATION_forces:R:3 REF_energy=0.010620500244840514 charge=0 spin=1 external_field="0.0 0.0 0.0" config_type=ORCA_DFT source_file=C_DFTprod_cutcluster_0236.out orca_step=0 DFT_energy=-18719.794066999755 FOUNDATION_energy=-18719.8046875 pbc="F F F"
O        9.64453400      10.25777000       9.80825600       0.01271580      -0.00451868      -0.01150548      -0.42664848       0.02731160       0.58161551      -0.43936428       0.03183028       0.59312099
H        9.29978000      10.40029000      10.72325800      -0.00511779       0.02027222       0.00762879       0.54309504       0.04246949      -0.90566833       0.54821283       0.02219727      -0.91329712
H       10.48059300      10.73239000       9.75160900       0.00344004       0.00238256       0.00297370      -0.06240716      -0.12748091       0.17322413      -0.06584720      -0.12986347       0.17025043
O        9.37952200      11.45589400      12.35983200      -0.03361184      -0.00543243       0.00906993      -2.63728577      -0.43524039       1.86367239      -2.60367393      -0.42980796       1.85460246
H       10.30759800      11.61674300      12.35657500      -0.00134631      -0.00252403       0.00330758       1.79182784       0.13567044       0.24245433       1.79317415       0.13819447       0.23914675
H        9.05682900      11.37423200      13.31300600       0.01968055       0.00550764      -0.00397995       0.82053082       0.26301595      -1.89973834       0.80085027       0.25750831      -1.89575839
O       14.34140800      10.52378200      11.76714900       0.01178459       0.01624181      -0.02828057       1.35853425       1.11232688      -0.66682167       1.34674966       1.09608507      -0.63854110
H       15.08500200      10.69113900      12.41560400      -0.01359823      -0.00101455       0.01652432      -1.22777775      -0.11682353      -1.40422296      -1.21417952      -0.11580898      -1.42074728
H       14.51762200      11.01359000      10.88966200       0.00840711      -0.01584105      -0.00216139      -0.20999168      -1.12917511       1.99262809      -0.21839879      -1.11333406       1.99478948
O        8.30808900      13.87607200      11.36966600       0.01816838       0.00559355       0.00117400       0.89737647      -0.54177015      -0.09755594       0.87920809      -0.54736370      -0.09872994
H        8.85587300      13.09688500      11.64180500       0.00291130      -0.01337116      -0.00861629      -0.82335553       0.45865507       0.00504486      -0.82626683       0.47202623       0.01366115
H        8.43855200      13.88524500      10.41358600      -0.01292522      -0.00290743       0.00371679      -0.21813513       0.11845521       0.07990552      -0.20520991       0.12136264       0.07618873
O       12.00000000      12.00000000      12.00000000      -0.01475455      -0.00072496       0.00774090      -3.07189562      -1.67797368      -2.13545401      -3.05714107      -1.67724872      -2.14319491
H       12.28142000      12.73708500      12.45588200       0.00814645      -0.01697878      -0.01462073       1.94460003       1.94663974       1.69276791       1.93645358       1.96361852       1.70738864
H       12.58432000      11.25477700      11.92733500      -0.00422144      -0.00169296       0.02076204       1.37403059      -0.32072211       0.55201651       1.37825203      -0.31902915       0.53125447
O        9.86006600      12.74361000      15.45690900       0.00965379       0.01018744      -0.01758962       0.16768068       2.06078773      -0.95413702       0.15802689       2.05060029      -0.93654740
H       10.67170700      12.38313500      15.10543700      -0.00222398      -0.01190229       0.01093949       0.48245649      -0.66604664       0.04043363       0.48468047      -0.65414435       0.02949414
H        9.93248500      13.66773900      15.06919500      -0.01504967       0.00023046       0.00548037      -0.60992691      -1.46479568       0.84221931      -0.59487724      -1.46502614       0.83673894
O       13.09694000      14.43929600      13.01485200      -0.01859605       0.01084578      -0.01008990       0.32465872      -0.11814019      -0.10052927       0.34325477      -0.12898597      -0.09043937
H       12.39053600      14.79363500      12.46593400       0.01012061      -0.00095953       0.00369103       0.31795637       0.39440216      -0.18556270       0.30783576       0.39536169      -0.18925373
H       13.97360100      14.64411300      12.63828600      -0.00489093       0.00460700       0.00121887      -0.81465919       0.04173096      -0.01207426      -0.80976826       0.03712396      -0.01329313
O       13.02717600      11.43936400       9.39184500      -0.01947705       0.06577738      -0.00847344       1.49259003      -1.17131416      -1.68290500       1.51206708      -1.23709154      -1.67443156
H       13.18465100      11.86527900       8.53733500       0.00659690      -0.03484869      -0.00501185       0.04354595      -0.34091386       0.08604244       0.03694905      -0.30606517       0.09105429
H       12.51499200      12.05524900       9.84866600       0.01611188      -0.02688077       0.00606632      -1.46707425       1.59608111       1.60179436      -1.48318613       1.62296188       1.59572804
O       13.90180300      13.48730100      15.46982900      -0.00328843      -0.00733298       0.01221530      -0.87716333       0.09661954       0.29351191      -0.87387490       0.10395252       0.28129661
H       13.20112800      13.54784000      16.14732500       0.01087990       0.00317855      -0.00664583       0.63827034      -0.08928218      -0.30023807       0.62739044      -0.09246073      -0.29359224
H       13.46530100      13.84343000      14.67569700       0.01048425       0.00210578       0.00446564       0.24916722      -0.09448733       0.29757667       0.23868297      -0.09659311       0.29311103
27
Properties=species:S:1:pos:R:3:REF_forces:R:3:DFT_forces:R:3:FOUNDATION_forces:R:3 REF_energy=0.008725039300770732 charge=0 spin=1 external_field="0.0 0.0 0.0" config_type=ORCA_DFT source_file=C_DFTprod_cutcluster_0241.out orca_step=0 DFT_energy=-18719.5088530857 FOUNDATION_energy=-18719.517578125 pbc="F F F"
O       12.00000000      12.00000000      12.00000000      -0.01098849       0.01344567       0.02773540       0.89815675      -1.35089750       0.55967181       0.90914524      -1.36434317       0.53193641
H       11.84134500      12.68435200      12.64471900       0.02275300       0.00627193      -0.00628208      -0.19104542       0.39343152       0.17890159      -0.21379842       0.38715959       0.18518367
H       11.66877600      12.35235300      11.19343800      -0.01685887      -0.01695329      -0.01344975      -0.64339733       0.52179581      -1.19499012      -0.62653846       0.53874910      -1.18154037
O       10.37324500      13.83762100      13.19593400      -0.00757321       0.00229595      -0.01719775      -0.06497075       0.17507219       0.57647053      -0.05739754       0.17277624       0.59366828
H       10.58082600      14.81204200      13.24318500       0.01359713      -0.00804624       0.01100876      -0.70782876      -1.72219476       0.83857729      -0.72142589      -1.71414852       0.82756853
H       10.08718800      13.36745900      14.03509800      -0.00113582       0.00613064       0.00281159       0.59457583       1.80824429      -1.23933347       0.59571165       1.80211365      -1.24214506
O       14.06270900      14.38761800      12.65918700       0.00449305      -0.00886531       0.00501929       0.41963487      -1.01255424       0.69526563       0.41514182      -1.00368893       0.69024634
H       14.36387000      13.63765400      13.24206100       0.00095246       0.01250930       0.00221825      -0.13450270       0.81192626      -0.57785070      -0.13545516       0.79941696      -0.58006895
H       13.14292900      14.47432200      12.91631800       0.00171101      -0.00013889      -0.00104372      -0.11894695       0.15421905      -0.08485711      -0.12065796       0.15435794      -0.08381339
O       11.84185700      12.58464700       8.87118500       0.00033898      -0.01317962      -0.00392444       1.16029400       0.31890259      -0.91637142       1.15995502       0.33208221      -0.91244698
H       12.78967200      12.39692100       8.98719400       0.00055633       0.01699848       0.00051086      -0.21041812      -0.19461293       0.53002535      -0.21097445      -0.21161141       0.52951449
H       11.94691400      13.04044300       8.01160400      -0.00291433       0.00153228       0.00468721      -0.80336305      -0.09907557       0.49608894      -0.80044872      -0.10060785       0.49140173
O        7.86227200      12.52499400      11.11327300       0.00328040      -0.00168547       0.00344647      -3.62674260       0.95862380      -0.70673101      -3.63002300       0.96030927      -0.71017748
H        7.06764000      13.17869000      11.22751300      -0.00752726       0.00261905      -0.00062447       2.60231218      -1.79266021      -0.16729193       2.60983944      -1.79527926      -0.16666746
H        8.58942200      12.84953100      11.60314800      -0.00021063      -0.00521914      -0.00908068       1.09383036       0.87477400       0.91785315       1.09404099       0.87999314       0.92693383
O       14.63273700      12.35011200      14.80459600      -0.01046212       0.00130176       0.00624961       0.41757320       0.42195519       0.20677528       0.42803532       0.42065343       0.20052567
H       15.46714400      12.13731000      15.24285100       0.00621888       0.00551875       0.00065943      -0.10006796       0.23986389      -0.20452361      -0.10628684       0.23434514      -0.20518304
H       14.13077000      11.52960100      14.87550700       0.01357364      -0.00486780      -0.00568785      -0.16525767      -0.39991147      -0.22181346      -0.17883131      -0.39504367      -0.21612561
O       15.80437400      13.67746800      10.01614200       0.02448335      -0.00413417      -0.00521952       0.73142728      -0.43571465      -1.03995603       0.70694393      -0.43158048      -1.03473651
H       15.59447800      12.74742600       9.90640200      -0.00342655       0.00181623      -0.00185868       0.35918021      -0.58707504      -0.36340031       0.36260676      -0.58889127      -0.36154163
H       15.15299700      13.86455700      10.65842500      -0.02232797       0.00386964       0.00070149      -1.13610167       1.10815393       1.52348143      -1.11377370       1.10428429       1.52277994
O       13.29965200       9.95733400      14.93915400      -0.00830514       0.00912522      -0.00073331      -2.81869824       0.43439187       0.22792322      -2.81039310       0.42526665       0.22865653
H       12.73788000      10.11128700      15.74277000      -0.00361252      -0.00818505       0.00523201       1.11800742      -0.36072158      -0.47235596       1.12161994      -0.35253653      -0.47758797
H       12.54672700      10.02780900      14.28491600       0.00220339      -0.01099079      -0.00709391       1.48447244      -0.23205493       0.24308779       1.48226905      -0.22106414       0.25018170
O       14.58017200      11.01782800      10.25514300       0.00222099      -0.00026500       0.01000548      -0.85292852       0.71529484       0.54259444      -0.85514951       0.71555984       0.53258896
H       14.43073500      10.35829300       9.57859700      -0.00475469      -0.00401502      -0.00150563      -0.27982619      -0.21657278      -0.06681485      -0.27507150      -0.21255776      -0.06530922
H       13.70995300      11.25562800      10.66772300       0.00371505       0.00311012      -0.00658421       0.97463144      -0.53260349      -0.28042654       0.97091639      -0.53571361      -0.27384233
27
Properties=species:S:1:pos:R:3:REF_forces:R:3:DFT_forces:R:3:FOUNDATION_forces:R:3 REF_energy=0.0011433025101723615 charge=0 spin=1 external_field="0.0 0.0 0.0" config_type=ORCA_DFT source_file=C_DFTprod_cutcluster_0244.out orca_step=0 DFT_energy=-18719.88557544749 FOUNDATION_energy=-18719.88671875 pbc="F F F"
O       10.98286700      10.99745600       9.39876200       0.00714645       0.00118362      -0.00851654       0.18160176       2.02295600       1.90310432       0.17445531       2.02177238       1.91162086
H       10.93819400      10.09650200       9.19930100      -0.00091183       0.00629774       0.00302909      -0.13919090      -1.84503647      -0.92372920      -0.13827907      -1.85133421      -0.92675829
H       10.89511600      11.54891500       8.63133200      -0.00542650      -0.00873640       0.01407215       0.14331561      -0.15630971      -0.89089683       0.14874211      -0.14757331      -0.90496898
O       14.20899400      14.08566400      11.72408300       0.00666056      -0.00109011      -0.00639918      -0.49953761      -0.44430301      -0.00296911      -0.50619817      -0.44321290       0.00343007
H       15.09025300      14.28732000      11.44412400       0.01016684       0.00941942       0.00113628       0.97836818       0.20717272      -0.01646344       0.96820134       0.19775330      -0.01759972
H       13.97690200      14.78266700      12.33516400      -0.01064590       0.00372557       0.01120925      -0.22385990       0.29697822       0.22847606      -0.21321400       0.29325265       0.21726681
O        7.18229800      13.53489000      12.71089200      -0.01611690       0.02216615       0.01907657      -1.40603106      -1.51262937      -0.58710297      -1.38991416      -1.53479552      -0.60617954
H        8.04767900      13.56958300      12.25935100       0.00555674      -0.00242814      -0.00580603      -0.55231383      -0.41917464      -0.09627281      -0.55787057      -0.41674650      -0.09046678
H        6.58956500      12.78439700      12.34621200       0.00977735      -0.01020585      -0.00716470       2.03222303       1.93641652       0.67935647       2.02244568       1.94662237       0.68652117
O       12.00000000      12.00000000      12.00000000      -0.00748808      -0.00605221      -0.00055513       1.15824097       0.67192541       0.39728242       1.16572905       0.67797762       0.39783755
H       12.88499300      12.33256300      12.33216700       0.00105066      -0.00719956       0.00939587      -1.53683214      -0.62576208      -0.86313030      -1.53788280      -0.61856252      -0.87252617
H       12.09049700      11.74726600      11.06265600       0.00211182       0.00760972      -0.01545288       0.01426875       0.03815132       0.30531744       0.01215693       0.03054160       0.32077032
O       11.52762400      12.92907300      15.17840000       0.00774814       0.00567686       0.00878615      -0.06803957      -0.24575773       0.16806068      -0.07578771      -0.25143459       0.15927453
H       10.57582800      12.95004200      15.30973800       0.00645591      -0.00796835      -0.00929026      -0.10065931      -0.18928468      -0.00216898      -0.10711522      -0.18131633       0.00712128
H       11.72453800      13.81028900      14.87201800      -0.01510013      -0.00321177      -0.00086630       0.15241033       0.50944027      -0.18779344       0.16751046       0.51265204      -0.18692714
O       13.80288000      13.64869800       8.90431200       0.00390471      -0.00057897       0.00225326      -0.40051748       0.93995836      -1.93950323      -0.40442219       0.94053733      -1.94175649
H       13.77722900      14.61065300       8.71328600       0.01081964      -0.01029345       0.00825007       0.04149679      -0.97979530       0.33234514       0.03067715      -0.96950185       0.32409507
H       14.11354300      13.54741300       9.78270900      -0.02342639      -0.00050101      -0.01371371       0.11888345       0.02406681       1.41566730       0.14230984       0.02456782       1.42938101
O       12.55586600      11.92056300       6.96391400       0.00906252      -0.00408661       0.00070484      -0.77881122      -0.19232995      -0.51229815      -0.78787374      -0.18824334      -0.51300299
H       13.06196500      12.44861600       7.55856600      -0.00204215       0.00077067      -0.00562125       0.32310855       1.25888954       1.21767110       0.32515070       1.25811887       1.22329235
H       13.24099700      11.32727100       6.69818400      -0.00195254       0.00548335      -0.00481914       0.37513833      -1.01999239      -0.69650994       0.37709087      -1.02547574      -0.69169080
O       10.01923800      15.89726100      13.78005700      -0.00021025       0.00255593       0.00857267      -0.00825391      -1.20195667      -0.08599451      -0.00804366      -1.20451260      -0.09456718
H        9.89327200      15.10682100      13.17235400      -0.00193596      -0.01261934      -0.00966616       0.11570459       1.12529758       0.69288741       0.11764055       1.13791692       0.70255357
H        9.77100800      15.57985100      14.66300600       0.00309632       0.00922688      -0.00290981      -0.03933891       0.24798626      -0.43057075      -0.04243523       0.23875938      -0.42766094
O        9.91737300      14.07015900      11.75749700       0.00814461       0.00620948      -0.00556290      -1.24114276       0.52037440       0.35153580      -1.24928737       0.51416492       0.35709870
H       10.59576500      13.40362200      11.88905200       0.00373536      -0.00307851       0.01487302       0.88589197      -0.45854204      -0.53504825       0.88215661      -0.45546353      -0.54992127
H       10.03573900      14.65398200      11.00033400      -0.01018065      -0.00227520      -0.00501526       0.47387636      -0.50873944       0.07874791       0.48405701      -0.50646424       0.08376317
27
Properties=species:S:1:pos:R:3:REF_forces:R:3:DFT_forces:R:3:FOUNDATION_forces:R:3 REF_energy=-0.01557032124401303 charge=0 spin=1 external_field="0.0 0.0 0.0" config_type=ORCA_DFT source_file=C_DFTprod_cutcluster_0248.out orca_step=0 DFT_energy=-18719.740179696244 FOUNDATION_energy=-18719.724609375 pbc="F F F"
O        9.24539800      11.11058900      11.29951300      -0.00427970       0.00190903       0.00457700      -2.42403254      -0.27812468      -0.75836221      -2.41975284      -0.28003371      -0.76293921
H        9.71682600      11.10356500      12.11921100      -0.00268980       0.00710860       0.00143242       0.36129401      -0.61651382       1.02386642       0.36398381      -0.62362242       1.02243400
H        8.31305700      10.76249200      11.48414200       0.00866510      -0.00650393      -0.00437299       2.16765286       0.68947340      -0.24592732       2.15898776       0.69597733      -0.24155433
O       10.63028200      13.73685300      14.78464600       0.00181659       0.00429335       0.02007810      -0.40969596       0.46230778      -0.75820120      -0.41151255       0.45801443      -0.77827930
H       11.03926800      13.24011200      15.47611800      -0.01428099      -0.00186902      -0.00342163       0.71225898      -0.32565626       0.85117498       0.72653997      -0.32378724       0.85459661
H       10.06289600      13.09145500      14.36552700       0.00140322      -0.00718238      -0.00672677      -0.36070117      -0.19015860      -0.07847506      -0.36210439      -0.18297622      -0.07174829
O       12.57462700      11.54073900      12.70161300      -0.00828638      -0.02720973       0.03810705      -0.77962317       1.29311386      -1.69835471      -0.77133679       1.32032359      -1.73646176
H       12.00000000      12.00000000      12.00000000       0.01184022       0.00684192      -0.00618385       1.13503682      -0.41263864       1.51307751       1.12319660      -0.41948056       1.51926136
H       13.47462900      11.64808200      12.32858500      -0.00910720       0.00792460      -0.01268972      -0.22021161      -0.44842146       0.14544629      -0.21110441      -0.45634606       0.15813601
O       10.68480000      13.66829600      11.59631500       0.01032773      -0.00495802      -0.00750864       0.74532882      -0.05671813      -0.62193555       0.73500109      -0.05176011      -0.61442691
H        9.90263100      13.14796500      11.47170100      -0.00790863       0.00516071      -0.00302891      -0.90438555      -0.51710776      -0.43554969      -0.89647692      -0.52226847      -0.43252078
H       10.67618000      13.90705000      12.51261500       0.00898370      -0.00843532      -0.00970658       0.25234994       0.52333837       0.97589473       0.24336624       0.53177369       0.98560131
O       11.01968500       9.53056600      13.58743700      -0.00102556       0.01092478      -0.01470080      -0.02001876       0.59735473      -0.31787276      -0.01899320       0.58642995      -0.30317196
H       11.56560700      10.33716500      13.44014600       0.01154242       0.01082317       0.00553136       0.11431969      -0.66580953      -0.03172387       0.10277727      -0.67663270      -0.03725523
H       10.52521700       9.70003600      14.38583700      -0.00751812      -0.00790706       0.01552706      -0.15174673      -0.08877444       0.41781016      -0.14422861      -0.08086738       0.40228310
O       13.98888700      12.84430400      15.19406100       0.01586300       0.00858702      -0.00808981      -0.16485436      -1.89711736      -0.90536705      -0.18071736      -1.90570438      -0.89727724
H       13.30575600      12.46701800      14.57353200      -0.01057794      -0.00603007      -0.02322410       0.77647851       0.76132895       0.59870096       0.78705645       0.76735902       0.62192506
H       14.63296400      12.08983000      15.21021000      -0.00189744      -0.01074078       0.01980532      -0.69096999       1.10790489       0.17316864      -0.68907255       1.11864567       0.15336332
O       13.26502000      12.89220200       9.75160700      -0.00152804      -0.00047816      -0.00306727       1.32072900      -2.05551804       0.46447404       1.32225704      -2.05503988       0.46754131
H       12.75248500      13.67180600       9.68345700      -0.00427843       0.01120328      -0.00339572      -1.32237805       0.71394568      -0.07077291      -1.31809962       0.70274240      -0.06737719
H       12.73259600      12.06772000       9.71704400       0.00296480      -0.00259170      -0.00415273       0.20117130       1.42386773      -0.46752949       0.19820650       1.42645943      -0.46337676
O       11.46708900      10.87426900       8.58845000      -0.00806934       0.01526637       0.00131372       0.77521044       0.74759556       0.55907640       0.78327978       0.73232919       0.55776268
H       11.16118200      10.72736700       9.48669100       0.00847492      -0.00039803       0.00453631      -0.51295265      -0.28824501       0.00714458      -0.52142757      -0.28784698       0.00260827
H       10.98571200      10.29262900       8.02245600       0.00082950      -0.00916389       0.00467844      -0.53671201      -0.63583777      -0.40071787      -0.53754151      -0.62667388      -0.40539631
O       15.22090700      10.72784000      11.69470700       0.01666736       0.01407818      -0.01279291       1.77978896       2.24991850       1.10937217       1.76312160       2.23584032       1.12216508
H       15.96673000      11.43728300      11.68495100      -0.01024767      -0.00163577       0.00290863      -2.02750536      -2.02833341      -0.33139126      -2.01725769      -2.02669764      -0.33429989
H       15.20292100      10.30177300      10.84661400      -0.00768273      -0.00901690       0.00456703       0.18416865      -0.06517444      -0.71702581       0.19185138      -0.05615754      -0.72159284
27
Properties=species:S:1:pos:R:3:REF_forces:R:3:DFT_forces:R:3:FOUNDATION_forces:R:3 REF_energy=-0.002763315354968654 charge=0 spin=1 external_field="0.0 0.0 0.0" config_type=ORCA_DFT source_file=C_DFTprod_cutcluster_0249.out orca_step=0 DFT_energy=-18719.848466440355 FOUNDATION_energy=-18719.845703125 pbc="F F F"
O       10.35602900      14.08276100      13.92226700      -0.00086730      -0.00045728       0.00157755      -0.37433069       0.89835102       1.14706963      -0.37346339       0.89880830       1.14549208
H       11.04640100      14.76667400      13.92205500       0.00184759       0.00172523       0.00568264      -0.18400862      -0.30688947      -0.13899950      -0.18585621      -0.30861470      -0.14468214
H        9.81536000      14.35302200      14.70934400       0.00239123      -0.00263551      -0.00618268       0.55924321      -0.54460314      -1.03697206       0.55685198      -0.54196763      -1.03078938
O       15.15579000      11.91891100      11.59353500       0.00526377      -0.01236380       0.02562753      -1.28754953      -0.11819830      -0.74475726      -1.29281330      -0.10583450      -0.77038479
H       14.37433200      11.34556600      11.81751400      -0.00013213       0.00000822      -0.01383311       0.81943841       0.71411907      -0.23033713       0.81957054       0.71411085      -0.21650402
H       14.90068900      12.34029200      10.73598300      -0.00855414       0.01194993      -0.00848441       0.32778200      -0.60022387       0.84056665       0.33633614      -0.61217380       0.84905106
O       12.27590900      16.16003600       9.46438500      -0.00660046      -0.02584782      -0.01740805      -0.04929762       0.48103580      -1.07770661      -0.04269716       0.50688362      -1.06029856
H       12.52005400      16.70206000       8.67502500       0.00050666       0.01935114       0.00449634      -0.16265185      -0.73872201       1.05820680      -0.16315851      -0.75807315       1.05371046
H       12.99148900      15.52245600       9.60537400       0.00027544      -0.00162959      -0.00415526       0.06377853      -0.01757838       0.10877253       0.06350309      -0.01594879       0.11292779
O        8.44427600      15.16611200      11.69205800      -0.00156806       0.01994909       0.00709085      -0.11696170       0.04004915      -0.23107241      -0.11539364       0.02010006      -0.23816326
H        8.64672200      14.75255400      10.83461800      -0.00671367      -0.01161845      -0.00430514       0.00640678       0.19599243       0.56118326       0.01312045       0.20761088       0.56548840
H        9.05508900      14.81824100      12.35204900       0.00484754      -0.00630308       0.00183071       0.08379935      -0.26590017      -0.19389184       0.07895181      -0.25959709      -0.19572255
O       11.15286100      12.62997000      10.37316800      -0.00109401       0.00314196      -0.02612476      -0.65636119      -0.26333318      -2.28435139      -0.65526718      -0.26647514      -2.25822663
H       10.67471200      13.32936300       9.84961200       0.01066234       0.00059614      -0.00280241       0.38517123      -0.61074277       1.02573999       0.37450889      -0.61133891       1.02854240
H       11.18603500      11.90596600       9.68794000       0.00015352       0.00605256       0.00770699       0.11517499       0.82345838       1.34677135       0.11502147       0.81740582       1.33906436
O       12.44632000      11.33188900      12.54765800       0.02985518       0.00745813       0.02378348       0.12375142      -0.08719655      -1.06297573       0.09389624      -0.09465468      -1.08675921
H       12.00000000      12.00000000      12.00000000      -0.00751581      -0.01243662      -0.00783015      -0.16902413      -0.23645466      -0.10896120      -0.16150832      -0.22401804      -0.10113105
H       12.40498200      11.68278100      13.42105600      -0.01247624      -0.00595566      -0.00069015      -0.08271944       0.29395605       1.12068446      -0.07024320       0.29991171       1.12137461
O       13.91029300      12.44454200       8.46703200      -0.01656791      -0.00880960      -0.00561758      -0.86566659      -0.59213117      -1.30870148      -0.84909868      -0.58332157      -1.30308390
H       13.09192800      12.38641200       7.88904200       0.00299837       0.00391152       0.00944541       1.64175059       0.05437498       1.04243277       1.63875222       0.05046346       1.03298736
H       14.56679500      11.84741500       8.04704200       0.00359643       0.00149295      -0.00375566      -0.67880404       0.53143642       0.29310614      -0.68240047       0.52994347       0.29686180
O       13.79228400      14.52653100      11.49017800       0.00304082       0.00083822       0.03263253       1.39926746      -3.38721162      -0.92597526       1.39622664      -3.38804984      -0.95860779
H       13.26529200      15.11073700      11.97417100      -0.00046461       0.02202523      -0.01683577      -1.35281580       0.94521570       1.41660241      -1.35235119       0.92319047       1.43343818
H       13.76461900      13.56168700      11.84837600      -0.00105107      -0.01677093      -0.00428063       0.03515670       2.64442006      -0.55893118       0.03620777       2.66119099      -0.55465055
O        9.46516700      14.86741300       9.01981600      -0.02273489      -0.01205653       0.01296003       2.10402988       0.02281412      -1.27424304       2.12676477       0.03487065      -1.28720307
H       10.36976400      15.24810400       9.21057700       0.01489708       0.01178419       0.00457708      -1.01479187       0.08337780       0.24213762      -1.02968895       0.07159361       0.23756054
H        9.59123000      14.70706500       8.05301900       0.00600464       0.00659995      -0.01510508      -0.66976749       0.04058430       0.97460239      -0.67577213       0.03398435       0.98970747
27
Properties=species:S:1:pos:R:3:REF_forces:R:3:DFT_forces:R:3:FOUNDATION_forces:R:3 REF_energy=0.004660509181121597 charge=0 spin=1 external_field="0.0 0.0 0.0" config_type=ORCA_DFT source_file=C_DFTprod_cutcluster_0250.out orca_step=0 DFT_energy=-18720.65744886582 FOUNDATION_energy=-18720.662109375 pbc="F F F"
O        9.39495100      12.76352100      10.81493500       0.00139011      -0.01062385       0.00412209      -0.81226580       0.96641352      -1.33643155      -0.81365591       0.97703737      -1.34055364
H        8.66002500      12.77053700      10.16116000       0.00102394      -0.00076999      -0.00556957       0.46779796      -0.54299106       0.80461682       0.46677402      -0.54222107       0.81018639
H        9.74182000      13.65854600      10.65136000       0.00243929       0.01045218       0.00067751       0.24131970      -0.19549842       0.53800826       0.23888041      -0.20595060       0.53733075
O       10.28311000       8.92587000      12.44513200       0.01259690      -0.00009509       0.00176313       0.81874251       0.13436303      -0.35104678       0.80614561       0.13445812      -0.35280991
H       10.71303700       8.18742800      11.98934600      -0.00578451       0.01458733       0.00028950      -0.22337504       0.22885885       0.16398245      -0.21759053       0.21427152       0.16369295
H       10.91574600       9.67374200      12.33302600      -0.00624342      -0.02237703      -0.00740793      -0.67153306      -0.30194302       0.19901029      -0.66528964      -0.27956599       0.20641822
O       11.26574600      11.63390800      12.55393500       0.00482190       0.00317173       0.02653615       1.87657357      -0.70046152       0.62114952       1.87175167      -0.70363325       0.59461337
H       10.43027200      12.04451600      12.38981400      -0.00388259       0.00985143      -0.00969605      -0.58010823       0.51889036      -0.66003679      -0.57622564       0.50903893      -0.65034074
H       12.00000000      12.00000000      12.00000000      -0.00200430      -0.01200872      -0.00303038      -1.20560661      -0.12190691       0.28790341      -1.20360231      -0.10989819       0.29093379
O       15.14362600      13.18792000      12.86966000      -0.01924966      -0.01549208      -0.01070187       1.90385010       0.51181448      -1.48772201       1.92309976       0.52730656      -1.47702014
H       14.90972000      12.62438500      13.59083700       0.00281394      -0.00978963       0.01871518      -0.75637495      -0.91059749       1.33130256      -0.75918889      -0.90080786       1.31258738
H       16.09898200      12.97981900      12.69988800       0.01358981       0.01004608      -0.00318944      -1.36751645       0.35411231       0.12842872      -1.38110626       0.34406623       0.13161816
O       14.80339400       9.48854500      12.74714500       0.00075753      -0.01332450      -0.02539221      -0.51634245      -0.05850062      -0.29726038      -0.51709998      -0.04517612      -0.27186817
H       14.54147900       8.55795300      12.80942800      -0.00757601       0.01360608       0.00974186       0.13081815       0.29199887       0.13936249       0.13839416       0.27839279       0.12962063
H       14.36083600       9.77608800      11.92287700       0.00039935       0.00023862       0.00475878       0.31380373      -0.19452228      -0.02650149       0.31340438      -0.19476090      -0.03126027
O       13.55332100      10.11009100      10.16846500      -0.00419883      -0.01648589      -0.00022566      -0.00178748       0.11953018      -0.85593116       0.00241135       0.13601607      -0.85570550
H       13.68278200       9.88114200       9.20785500       0.00907817       0.01766242       0.00869746      -0.24542580       0.82195140       1.68049223      -0.25450397       0.80428898       1.67179477
H       13.36089300      11.08113900      10.31098000      -0.00085228      -0.01785967       0.00032365       0.26496182      -0.96540889      -0.75421959       0.26581410      -0.94754922      -0.75454324
O       13.25693100      12.71867300      10.90397800       0.00179359       0.01737874      -0.00489361      -0.41838470      -1.74286062      -1.00432737      -0.42017829      -1.76023936      -0.99943376
H       12.62375100      13.38924500      10.68882700       0.00333945      -0.02635632      -0.00259856      -0.04455115       1.15413143       0.23673048      -0.04789060       1.18048775       0.23932904
H       13.90963800      12.91293100      11.57405200       0.00435338       0.03102865       0.00605521       0.73199580       0.99387368       0.84178397       0.72764242       0.96284503       0.83572876
O       11.33758000      15.04842400      10.11415500      -0.01281715       0.01217953      -0.00726621      -0.49501998      -0.69251152      -1.26268248      -0.48220283      -0.70469105      -1.25541627
H       11.26507400      15.99588400       9.92784700       0.01403038      -0.00537030       0.00334546       0.07889914      -0.25980387       0.08925457       0.06486876      -0.25443357       0.08590911
H       11.11876800      14.59999600       9.25526900      -0.00722741      -0.00083392       0.00619517       0.39143948       0.76295085       1.03146527       0.39866689       0.76378477       1.02527010
O       13.63973400      11.47765300      14.56641600       0.00101299       0.01334506      -0.01414867       0.62332148      -0.15220896      -0.29083498       0.62230849      -0.16555402      -0.27668631
H       13.81364100      10.77974700      13.89953100       0.00125654      -0.00352364      -0.00090731      -0.16429026       0.10444156       0.46290325      -0.16554680       0.10796520       0.46381056
H       12.75078600      11.80000200      14.40451800      -0.00486097       0.00136324       0.00380572      -0.34094152      -0.12411539      -0.22939981      -0.33608055      -0.12547863      -0.23320553
27
Properties=species:S:1:pos:R:3:REF_forces:R:3:DFT_forces:R:3:FOUNDATION_forces:R:3 REF_energy=-0.009990387905418174 charge=0 spin=1 external_field="0.0 0.0 0.0" config_type=ORCA_DFT source_file=C_DFTprod_cutcluster_0251.out orca_step=0 DFT_energy=-18720.154521637905 FOUNDATION_energy=-18720.14453125 pbc="F F F"
O       13.04401900       7.37578200      12.57239500       0.00815506       0.00117545      -0.00970518       0.10930362       2.19168358       0.33208746       0.10114856       2.19050813       0.34179264
H       12.27053200       8.00745900      12.61894900      -0.02175206       0.01365682      -0.00627382       0.85581654      -1.16869405       0.05117781       0.87756860      -1.18235087       0.05745163
H       13.80013600       8.00539100      12.73643100       0.00184820       0.00193455       0.00471705      -1.01085808      -1.12783120      -0.34535122      -1.01270628      -1.12976575      -0.35006827
O        9.71951600      11.93482600      10.94640300       0.00138204      -0.02585096      -0.02324616      -0.38776327      -0.24202829       0.24271838      -0.38914531      -0.21617733       0.26596454
H        8.76793300      11.89276300      11.12216900       0.00904350       0.01185245      -0.00168996       0.34303887       0.10247009      -0.02640554       0.33399537       0.09061764      -0.02471558
H        9.91132100      11.14477500      10.42280900       0.00242703       0.00943495       0.01901326       0.13580846      -0.01353979      -0.22007267       0.13338143      -0.02297474      -0.23908593
O       13.63693100      11.34386600      15.13740600      -0.00288231       0.00193805       0.00003033       0.09353679       0.58386893      -1.98626311       0.09641910       0.58193088      -1.98629344
H       13.49327000      11.48356500      14.15213600      -0.01064893      -0.00001340      -0.00158308       0.34791554      -0.10476367       1.55779697       0.35856447      -0.10475027       1.55938005
H       12.93994100      10.72352200      15.31527600       0.01050567      -0.00686712       0.00199677      -0.45237756      -0.51391841       0.41757943      -0.46288323      -0.50705129       0.41558266
O       10.98482100       9.33467900       9.85858700       0.02563001      -0.01507111       0.01871950      -0.72707378       0.80343334       0.03494685      -0.75270379       0.81850445       0.01622735
H       10.80906800       9.23355400      10.80632900       0.00091531       0.01677681       0.01948005      -0.13186742      -0.42971997       0.10155118      -0.13278273      -0.44649678       0.08207113
H       11.74522500       8.79357100       9.70354200      -0.01534728      -0.00032926      -0.02200117       0.54629441      -0.67724014      -0.12738100       0.56164169      -0.67691088      -0.10537983
O       10.66237600       9.11909200      12.65540700      -0.00165521       0.00945792      -0.01349153       2.28369082       2.04034314      -1.34868707       2.28534603       2.03088522      -1.33519554
H        9.93037400       9.38267700      13.17391700       0.00822293      -0.00853747       0.00653779      -1.34325505       0.15548197       0.91988062      -1.35147798       0.16401944       0.91334283
H       11.17086900      10.02453000      12.52160400      -0.00620909      -0.01669116      -0.00863690      -0.77135034      -1.91196604       0.70063852      -0.76514125      -1.89527488       0.70927542
O       12.49178500      11.23216800      12.41172500      -0.01127952       0.01071874       0.01678232      -1.82799977       1.88621763      -0.03632059      -1.81672025       1.87549889      -0.05310291
H       12.00000000      12.00000000      12.00000000       0.00537252       0.01397900      -0.00455864       0.68362224      -0.99239488       0.96091465       0.67824972      -1.00637388       0.96547329
H       12.79745500      10.77537400      11.62896600      -0.00377311      -0.00361543      -0.00533111       1.04928075      -0.84613525      -0.87765760       1.05305386      -0.84251982      -0.87232649
O       11.30846500      13.82342300       9.58635800      -0.00278960       0.00925081       0.00642718      -0.47423611       0.89522116      -0.81804739      -0.47144651       0.88597035      -0.82447457
H       10.57891200      14.28830100       9.10633100      -0.00272466      -0.00859473      -0.00296429       0.95308636      -0.70977072       0.74169811       0.95581102      -0.70117599       0.74466240
H       10.87797700      13.32929000      10.28969200       0.00939852      -0.00935527       0.00304699      -0.44974095      -0.08236108      -0.08895488      -0.45913947      -0.07300581      -0.09200187
O       15.76827200      11.79957300      10.37120300       0.01247180       0.00300080       0.00036369       0.65139068       0.23649502      -0.03582791       0.63891888       0.23349422      -0.03619160
H       16.53410900      11.37296500      10.80872300       0.00510714      -0.00101361      -0.00332487      -0.45043957       0.63155266      -0.64635373      -0.45554671       0.63256627      -0.64302886
H       16.06247400      12.40298000       9.65922400      -0.00860889      -0.00308668       0.00089957       0.03575921      -0.64524739       0.74066319       0.04436810      -0.64216071       0.73976362
O       13.88091100       9.93036400      10.53612300      -0.00386873      -0.02839787       0.01430964      -0.51171169       0.75778602      -1.79524160      -0.50784296       0.78618389      -1.80955124
H       13.39998900       9.92589300       9.65560200      -0.00147934       0.00708929       0.00706722       0.88754349       0.02824552       1.55888619       0.88902283       0.02115623       1.55181897
H       14.50355700      10.70921600      10.44154200      -0.00746127       0.01715842      -0.01658416      -0.43741431      -0.84718797      -0.00797495      -0.42995304      -0.86434639       0.00860921
27
Properties=species:S:1:pos:R:3:REF_forces:R:3:DFT_forces:R:3:FOUNDATION_forces:R:3 REF_energy=-0.002014893812884111 charge=0 spin=1 external_field="0.0 0.0 0.0" config_type=ORCA_DFT source_file=C_DFTprod_cutcluster_0257.out orca_step=0 DFT_energy=-18720.058655518813 FOUNDATION_energy=-18720.056640625 pbc="F F F"
O       13.08754300      12.83127300      15.89892100       0.01988277      -0.00694512      -0.01780188      -0.51940808      -0.62321185      -1.62175882      -0.53929085      -0.61626673      -1.60395694
H       12.56359500      12.71638300      15.06121400      -0.01140162       0.00491845       0.00729437       0.27393440       0.43901950       1.29492350       0.28533602       0.43410105       1.28762913
H       13.94847500      12.53161900      15.55541000      -0.01408554       0.00195716       0.00424004       0.09124702       0.36907710       0.36250002       0.10533256       0.36711994       0.35825998
O       13.92963700       8.81615800      13.84386400      -0.01808157      -0.00105122       0.00264995      -0.54669335       0.55332556      -0.34887440      -0.52861178       0.55437678      -0.35152435
H       12.92987100       8.71334200      13.69017100      -0.01090853       0.00221851      -0.00075112       1.57328756      -0.41566164       0.19123455       1.58419609      -0.41788015       0.19198567
H       14.45639400       8.03803700      13.62935700       0.00279240       0.00684915      -0.00483313      -0.74427457      -0.16575127       0.05518981      -0.74706697      -0.17260042       0.06002294
O        9.89162500       9.92532200      11.77430600       0.01339865       0.00879752       0.01128068       1.64287997      -0.60171414      -2.39308391       1.62948132      -0.61051166      -2.40436459
H        9.61199100       9.58273400      10.87635000      -0.00750239       0.00711632       0.00074103      -0.14990155       0.62568283       2.02912238      -0.14239916       0.61856651       2.02838135
H        9.22852000      10.01199900      12.42686700       0.01010417      -0.01183392      -0.00549138      -1.81601025       0.13177578       0.29906118      -1.82611442       0.14360970       0.30455256
O       11.20788600       8.62773000      13.88012100       0.00196327      -0.02263659       0.01257094      -1.02718829       1.10926336      -0.19782496      -1.02915156       1.13189995      -0.21039590
H       11.02984900       9.30817900      14.56553600       0.00718053       0.01372049       0.02789648       0.31163480      -0.61749747      -0.30034591       0.30445427      -0.63121796      -0.32824239
H       10.63024300       8.93280200      13.12829300      -0.00443291       0.00952551      -0.02012231       1.05327023      -0.55410692       0.60358379       1.05770314      -0.56363243       0.62370610
O       12.00000000      12.00000000      12.00000000      -0.02272859       0.01206506      -0.00960368      -0.34098610      -0.61565553      -0.31202823      -0.31825751      -0.62772059      -0.30242455
H       12.93114000      11.76365000      12.09931300       0.01090600      -0.00924417       0.01712888       0.17198897      -0.03674446       0.03065485       0.16108297      -0.02750029       0.01352597
H       11.51851200      11.15900500      11.92169300       0.00777096      -0.00342776      -0.01534114       0.19438097       0.29658191      -0.04302983       0.18661001       0.30000967      -0.02768869
O       10.76291800      13.80105500      13.45076300       0.01676059      -0.00974942       0.01209971      -0.37378305      -0.51667649       1.33945033      -0.39054364      -0.50692707       1.32735062
H       10.88720600      13.25029500      12.67578300      -0.00153968       0.00746337       0.00082130       0.49884763       0.08127520      -0.42442926       0.50038731       0.07381183      -0.42525056
H       10.63989700      14.71276900      13.24766100      -0.01690924       0.00662410      -0.01147554      -0.06441144       0.77577871      -0.58051852      -0.04750220       0.76915461      -0.56904298
O       14.76095600      10.97817000      12.26868700       0.00219290      -0.02286551      -0.01379875       1.73617379      -0.80327866      -1.10195402       1.73398089      -0.78041315      -1.08815527
H       15.51046200      11.00521600      11.57503800      -0.00281317       0.00817669      -0.00747634      -1.85167141      -0.38571831       1.83917569      -1.84885824      -0.39389500       1.84665203
H       14.77679600      10.10871300      12.78685200       0.01454510       0.00892353       0.00383817      -0.24890409       0.95481086      -0.77212645      -0.26344919       0.94588733      -0.77596462
O        9.49333000      12.76424500      15.79612700       0.00369486      -0.02669967      -0.00208634      -1.14567939      -1.08675731       1.22413784      -1.14937425      -1.06005764       1.22622418
H        9.90941200      13.23074300      15.08809800       0.00123570      -0.00110658       0.00205473       0.35482214       0.51301328      -1.23248657       0.35358644       0.51411986      -1.23454130
H        8.60403800      12.47917900      15.52021600      -0.00923060       0.01876492      -0.00493744       0.74131168       0.45183352      -0.03730285       0.75054228       0.43306860      -0.03236541
O       15.43999900      12.63499900      14.32741200       0.01017740      -0.00087134       0.00542782      -0.50507412      -2.09531204       0.08657743      -0.51525152      -2.09444070       0.08114961
H       15.23352900      12.01279600      13.57149400       0.00233635      -0.00542386       0.00673269       0.34332648       1.11632649       0.67910116       0.34099013       1.12175035       0.67236847
H       15.75962700      13.45135500      14.00040600      -0.00530778       0.00473431      -0.00105836       0.34688015       1.10032204      -0.66894885       0.35218793       1.09558773      -0.66789049
27
Properties=species:S:1:pos:R:3:REF_forces:R:3:DFT_forces:R:3:FOUNDATION_forces:R:3 REF_energy=-0.007610831558849895 charge=0 spin=1 external_field="0.0 0.0 0.0" config_type=ORCA_DFT source_file=C_DFTprod_cutcluster_0260.out orca_step=0 DFT_energy=-18719.55057958156 FOUNDATION_energy=-18719.54296875 pbc="F F F"
O       12.00000000      12.00000000      12.00000000       0.00017159       0.00577772       0.01086143       3.70638983       0.58095330       1.57922629       3.70621824       0.57517558       1.56836486
H       11.11041700      12.02458100      12.20104500       0.00601209      -0.00281813      -0.00410448      -3.23401391       0.01908319       0.08828984      -3.24002600       0.02190132       0.09239432
H       12.39037800      12.26539000      12.90387200      -0.00500775      -0.00131117      -0.01410647      -0.30744601      -0.52178018      -1.90388866      -0.30243826      -0.52046901      -1.88978219
O       12.08761900      15.47748300      14.57084000      -0.01542734       0.00803491       0.02054767      -1.06208526      -0.46052045       0.92180226      -1.04665792      -0.46855536       0.90125459
H       12.30703800      15.50662700      15.51959300       0.00473609      -0.00176279      -0.01884733       0.17628899       0.34529142      -0.64137839       0.17155290       0.34705421      -0.62253106
H       12.82706600      15.76238600      14.05378400       0.02153682       0.00122728       0.00137855       0.80054789       0.56410887      -0.24681029       0.77901107       0.56288159      -0.24818884
O       11.06335400      15.84903400      11.11107600       0.02793791      -0.03115091      -0.01695955      -0.54535077       1.71074214      -1.54502547      -0.57328868       1.74189305      -1.52806592
H       10.28388100      15.82027500      11.64574800      -0.01201735       0.01111943      -0.00546464      -0.77129964      -0.62564396       1.35691646      -0.75928229      -0.63676339       1.36238110
H       10.67103100      16.51666400      10.47584500       0.00302930       0.00203451       0.01130301       1.26387496      -1.01914290       0.43900407       1.26084566      -1.02117741       0.42770106
O       14.42358600      14.01437900      11.25062400      -0.00459688      -0.01452220      -0.00493150       0.28064925       0.56675243      -0.13628246       0.28524613       0.58127463      -0.13135096
H       13.57717500      13.55498100      11.18674300      -0.00768553       0.00954389      -0.00185963      -0.18376822      -0.02867356       0.42627341      -0.17608269      -0.03821745       0.42813304
H       14.46243400      14.54176000      12.06860400       0.00699427       0.00216956       0.01712977      -0.19802139      -0.69532554      -0.49692501      -0.20501566      -0.69749510      -0.51405478
O       10.79903700      13.43794400       9.49161100      -0.00340544       0.01929596       0.00757506      -0.44730066      -0.55508795      -0.99428711      -0.44389522      -0.57438391      -1.00186217
H       11.27038500      14.12590600       9.95744400      -0.00110395       0.00178090      -0.00210905       0.36940585       0.48735830       0.12747777       0.37050980       0.48557740       0.12958682
H       11.17652800      13.44375400       8.58884300      -0.00313453      -0.01161652      -0.00734414      -0.22007215       0.09794346       0.87734048      -0.21693762       0.10955998       0.88468462
O        8.06805900      14.98656000      11.15706600      -0.01885555      -0.00033278       0.01306490      -0.67928479      -0.39381240      -0.30158868      -0.66042924      -0.39347962      -0.31465358
H        8.74966500      14.53317700      10.65210000       0.00622362      -0.00144568      -0.01466334       0.37336540      -0.18753931      -0.21921325       0.36714178      -0.18609363      -0.20454991
H        7.25421200      14.54707300      10.83864300       0.00852098      -0.00102165       0.00009563       0.53108742       0.46914512       0.37755295       0.52256644       0.47016677       0.37745732
O       15.75863200      13.89303300      14.20446300       0.01591358       0.00030715      -0.01466132      -0.64258733      -1.40759414      -0.36432082      -0.65850091      -1.40790129      -0.34965950
H       14.86676700      13.42780500      14.27897900      -0.02136947      -0.00282961       0.00335330       1.32126163       1.57021529       0.18636216       1.34263110       1.57304490       0.18300886
H       15.80483300      14.82695600      14.40732600      -0.00749733       0.01661277       0.00600265      -0.73805018      -0.06636326       0.27507170      -0.73055285      -0.08297603       0.26906905
O       12.98901000      15.22084300       8.80338700      -0.00615280       0.00422102       0.01327859       1.00308687      -0.02816808       0.55275272       1.00923967      -0.03238910       0.53947413
H       12.88111100      16.17542700       8.70591200      -0.00978437      -0.00048291      -0.00827198       0.21847138      -0.24888656       0.11914277       0.22825575      -0.24840365       0.12741475
H       13.76654300      15.07768100       9.41122100       0.00815014      -0.00100914       0.00688664      -1.07356914       0.23862606      -0.64731970      -1.08171928       0.23963520      -0.65420634
O       12.97614800      12.99647600      14.45976900      -0.00328907       0.01322767       0.01864408       0.77325800       2.79095146      -1.63620497       0.77654707       2.77772379      -1.65484905
H       12.44736700      13.86623400      14.45683900       0.01683178      -0.02166873      -0.00951361       0.66129246      -1.28511053       0.04758295       0.64446068      -1.26344180       0.05709656
H       12.51817900      12.38599600      14.96367400      -0.00673039      -0.00338102      -0.00728404      -1.37613041      -1.91752220       1.75844896      -1.36940002      -1.91414118       1.76573300
27
Properties=species:S:1:pos:R:3:REF_forces:R:3:DFT_forces:R:3:FOUNDATION_forces:R:3 REF_energy=0.03728151302493643 charge=0 spin=1 external_field="0.0 0.0 0.0" config_type=ORCA_DFT source_file=C_DFTprod_cutcluster_0262.out orca_step=0 DFT_energy=-18719.185374736975 FOUNDATION_energy=-18719.22265625 pbc="F F F"
O        9.26310200      13.44316900      12.57611700       0.00091843      -0.00248054      -0.02121959      -2.53756424       0.15581509      -1.32547484      -2.53848267       0.15829563      -1.30425525
H        9.59823300      12.89048100      11.84257900       0.00913210       0.00581279       0.00768826       0.07451217       0.37836295       0.40754179       0.06538007       0.37255016       0.39985353
H        8.33641700      13.68396900      12.21224300      -0.00733211       0.00805997       0.01313255       2.24241612      -0.42851058       1.13845346       2.24974823      -0.43657055       1.12532091
O       12.32742700      13.00469300      15.93416600      -0.00068087      -0.00120948      -0.01629003      -0.49197996       0.35365187      -0.38633265      -0.49129909       0.35486135      -0.37004262
H       12.76464000      12.54693800      15.19322200      -0.00285556       0.02093888       0.02646027       0.04156790       0.03121453       0.75708894       0.04442346       0.01027565       0.73062867
H       12.89257100      12.90914400      16.69872400      -0.00369199      -0.01026933      -0.00808836       0.26734574      -0.21486402      -0.02040268       0.27103773      -0.20459469      -0.01231432
O       11.96849200      11.57715100      12.87389400      -0.02863202      -0.01381085      -0.01080702      -0.23052991       0.21282827      -0.08654879      -0.20189789       0.22663912      -0.07574177
H       12.00000000      12.00000000      12.00000000       0.02242087       0.02803195      -0.01474059      -0.02416863      -0.42765003       0.26440584      -0.04658950      -0.45568198       0.27914643
H       11.59854700      10.68619700      12.83837200      -0.00367310      -0.00685418      -0.00356025       0.00395600       0.26345726      -0.48177463       0.00762910       0.27031144      -0.47821438
O       13.41202700      11.17494200       9.65701300      -0.01447949      -0.00118105      -0.00531425       0.43131745       0.82723440       0.00718726       0.44579694       0.82841545       0.01250151
H       13.28224400      11.62543600       8.80695400       0.02070654       0.00184100       0.00601434       0.36567805      -0.19292855       0.46460923       0.34497151      -0.19476955       0.45859489
H       14.15931900      11.60907100      10.13105200      -0.01934213       0.00785105       0.00107657      -0.81271142      -0.25843312      -0.61431290      -0.79336929      -0.26628417      -0.61538947
O       11.17190300      15.42367200      12.91837800       0.02331751       0.00845742       0.01271890      -0.49424083      -1.45777369       0.17049007      -0.51755834      -1.46623111       0.15777117
H       10.43579300      14.71367600      12.85711300      -0.01390286      -0.01645020       0.01322443       1.16641323       1.74313804      -0.25724223       1.18031609       1.75958824      -0.27046666
H       11.06958400      16.14806800      12.30145300      -0.00720744      -0.00644093      -0.01444642      -0.64217554      -0.09403703      -0.08325433      -0.63496810      -0.08759610      -0.06880791
O       13.34509200       8.99397300      11.22691200      -0.00293003      -0.00819903      -0.00630127      -1.30672394      -1.92585998       1.25375582      -1.30379391      -1.91766095       1.26005709
H       13.25528800       9.68882400      10.60402100       0.01286346       0.00240579      -0.00088704      -0.10115374       1.05325737      -1.12707889      -0.11401720       1.05085158      -1.12619185
H       12.45267800       8.56504500      11.24561400      -0.00594699       0.00066464       0.00913692       1.31565071       0.43955244       0.01091922       1.32159770       0.43888780       0.00178230
O       13.87040000      11.09383200      14.60879400       0.00330705      -0.02425319       0.01063967      -0.26308172      -0.26629689       0.04087879      -0.26638877      -0.24204370       0.03023912
H       14.78435800      11.39755500      14.51832700      -0.00907851       0.00921302      -0.02086992      -0.64557160      -0.05144068      -0.63142992      -0.63649309      -0.06065370      -0.61056000
H       13.27513200      11.20598500      13.81118300       0.02803168       0.01832724       0.02378844       1.47512612       0.23213911       0.55955123       1.44709444       0.21381187       0.53576279
O       13.39539400      14.38275600      10.90155500      -0.00604288      -0.00036722       0.01084582      -0.33026121       0.05548662       0.10814194      -0.32421833       0.05585384       0.09729612
H       12.54635600      14.84703800      10.95476000      -0.01329382       0.01151518       0.01038907       0.13920514      -0.12637246       0.59972678       0.15249896      -0.13788764       0.58933771
H       13.47110800      14.18587000       9.97327400       0.01694590      -0.02004325      -0.01954626       0.22118631      -0.07108432      -0.56508105       0.20424041      -0.05104107      -0.54553479
O       10.25710700      12.64465600      10.12980400       0.01534341      -0.01570220       0.00109021       0.78323815      -1.00262649      -1.51382812       0.76789474      -0.98692429      -1.51491833
H       10.33483800      13.20634700       9.32199900      -0.00203952       0.00389382       0.00385914      -0.12809175      -0.67467860       0.98591349      -0.12605223      -0.67857242       0.98205435
H       10.61041700      11.74998800       9.86236500      -0.01185813       0.00024892      -0.00799384      -0.51935866       1.44641842       0.32409725      -0.50750053       1.44616950       0.33209109
27
Properties=species:S:1:pos:R:3:REF_forces:R:3:DFT_forces:R:3:FOUNDATION_forces:R:3 REF_energy=0.025200922769727185 charge=0 spin=1 external_field="0.0 0.0 0.0" config_type=ORCA_DFT source_file=C_DFTprod_cutcluster_0263.out orca_step=0 DFT_energy=-18719.91620532723 FOUNDATION_energy=-18719.94140625 pbc="F F F"
O       10.90338800      12.44362600       9.32900000      -0.02208746       0.03485754      -0.00062564       0.91556656      -0.17904464       0.10267418       0.93765402      -0.21390218       0.10329982
H       10.71838500      13.19653900       8.76111300      -0.00508469      -0.01447502      -0.00991735      -0.02603294       0.01573603       0.01630100      -0.02094825       0.03021105       0.02621835
H       11.83681600      12.17911000       9.12496200       0.01611479      -0.00629793      -0.00112710      -0.72988425       0.07752051      -0.21156535      -0.74599904       0.08381844      -0.21043825
O       14.70692100      10.09378700      11.16881400      -0.00395599      -0.00273014       0.01363719       0.25841296       1.51730322       0.60079039       0.26236895       1.52003336       0.58715320
H       14.35141100       9.50418200      11.83708200       0.01430519       0.02144929      -0.00892291      -0.02123053       0.03616447       0.05447654      -0.03553572       0.01471518       0.06339945
H       14.85591200      10.97792600      11.62988900      -0.00262296      -0.03044648      -0.00924471      -0.07785517      -1.46948893      -0.76689997      -0.07523221      -1.43904245      -0.75765526
O       12.00000000      12.00000000      12.00000000      -0.02500034      -0.04984549      -0.02251749       0.84404140      -0.44761506       0.74690892       0.86904174      -0.39776957       0.76942641
H       11.78593900      12.34394900      11.13704700       0.00669323       0.01161158       0.01737772      -0.55145873       0.19207767      -0.66707744      -0.55815196       0.18046609      -0.68445516
H       11.77694100      11.05400300      11.98894100       0.01696164       0.01679095      -0.00540658      -0.02368686       0.09667703      -0.30952840      -0.04064850       0.07988608      -0.30412182
O       13.46320900      11.37989500       8.79134600       0.01827549       0.01922219       0.01777277       0.60690098       1.04980855      -1.09182670       0.58862549       1.03058636      -1.10959947
H       14.15034000      11.87787400       8.30391900      -0.00929830      -0.01012630      -0.02376177      -0.79361353      -0.24280014      -0.17228722      -0.78431523      -0.23267384      -0.14852545
H       13.98302100      11.15530200       9.55197600       0.00099872      -0.00383390      -0.00229407       0.19688265      -0.94842387       1.36330544       0.19588393      -0.94458997       1.36559951
O       13.94792500      12.36307500      14.12811300       0.00612838       0.02688596       0.02602197       1.41711576      -0.06642276      -1.48825489       1.41098738      -0.09330872      -1.51427686
H       13.69045600      12.13409000      13.19281400      -0.00945219       0.00793799      -0.01094615      -0.08757142       0.45916363       1.27380467      -0.07811923       0.45122564       1.28475082
H       14.91167200      12.59145500      14.03046500       0.00336150      -0.01405143       0.00025412      -1.50004777      -0.38169207       0.34622046      -1.50340927      -0.36764064       0.34596634
O       11.37940000       9.21484500      11.71653700       0.02345786      -0.00673855       0.02438807       0.24735979       0.14576552       0.41577446       0.22390193       0.15250407       0.39138639
H       11.95807600       8.62284400      12.24696000      -0.01396208       0.00428497      -0.02395470      -0.69880836       0.21325590      -1.33620925      -0.68484628       0.20897093      -1.31225455
H       11.27404100       9.02143600      10.76722300       0.00261480      -0.00594826       0.00522116       0.72103966      -0.49684994       0.72030196       0.71842486      -0.49090168       0.71508080
O        8.75685400       9.78767100      12.51020200      -0.00164889      -0.00365760      -0.00260125       0.03049390      -0.21843030      -0.87106930       0.03214279      -0.21477270      -0.86846805
H        9.05572100       9.80769500      13.40839000      -0.00042012       0.00322469       0.00651779      -0.00784814       0.23953216       0.95073905      -0.00742802       0.23630747       0.94422126
H        9.57842800       9.55476700      12.04949900      -0.00514888      -0.00217505      -0.00750160      -0.37318917       0.08587593       0.11427500      -0.36804029       0.08805098       0.12177660
O       15.46695500      12.77872600      11.41903200      -0.03474247       0.01203935       0.02334735      -0.45355564       1.33422606       0.39851305      -0.41881317       1.32218671       0.37516570
H       16.11448900      13.21846700      12.02570000       0.01285485      -0.01236633      -0.00728116      -0.99115011      -0.35839782      -0.90183625      -1.00400496      -0.34603149      -0.89455509
H       14.70023600      13.40738200      11.28222400       0.00457885      -0.00781535      -0.00197081       1.39523973      -0.87682502       0.46198701       1.39066088      -0.86900967       0.46395782
O       10.07363500      12.93317900      13.71742600       0.00023733       0.00815051       0.00329348       0.44453405      -0.29868580      -1.28857139       0.44429672      -0.30683631      -1.29186487
H       10.91060000      12.48813000      13.43559500       0.00790577       0.01120291      -0.00977211      -0.70355184       0.59916792       0.52676673      -0.71145761       0.58796501       0.53653884
H        9.71629700      13.10112500      12.81652400      -0.00106406      -0.00714996       0.01001388      -0.03810298      -0.07759811       1.01228720      -0.03703892      -0.07044815       1.00227332
27
Properties=species:S:1:pos:R:3:REF_forces:R:3:DFT_forces:R:3:FOUNDATION_forces:R:3 REF_energy=0.013810222048050491 charge=0 spin=1 external_field="0.0 0.0 0.0" config_type=ORCA_DFT source_file=C_DFTprod_cutcluster_0264.out orca_step=0 DFT_energy=-18719.732283527952 FOUNDATION_energy=-18719.74609375 pbc="F F F"
O       10.46732200      10.93944700      14.18740400      -0.00156194      -0.02369508      -0.01050311      -0.12173583       0.05011492      -0.82029032      -0.12017389       0.07381000      -0.80978721
H       10.99117600      11.17162700      13.39550600      -0.00805439       0.01918468      -0.00061036       0.45051418       0.60389438       0.37312346       0.45856857       0.58470970       0.37373382
H        9.73391100      10.52840900      13.70141600       0.00839668       0.00293876       0.01598345      -0.03354986      -0.33245014       0.73023449      -0.04194654      -0.33538890       0.71425104
O       15.78399700       9.51169300      10.50154900       0.01721575       0.00604240       0.00348368       0.20825665       1.03921894       1.21264758       0.19104090       1.03317654       1.20916390
H       15.90289500       9.77642000      11.47355000      -0.00929194      -0.00512397      -0.00499719      -0.28595009      -0.05221633      -2.49571079      -0.27665815      -0.04709236      -2.49071360
H       15.61264300      10.30856700       9.93223200      -0.01267304      -0.01140159       0.00672202       0.20204995      -1.01450103       1.36580543       0.21472299      -1.00309944       1.35908341
O       13.00401900       8.49272600      11.07034200      -0.00520378      -0.00699639       0.00033771      -3.33469683       1.43465567       0.58268278      -3.32949305       1.44165206       0.58234507
H       13.87894400       8.28069100      11.22299600       0.00144109       0.00723784      -0.00653106       2.99756893      -0.76767577       0.16718270       2.99612784      -0.77491361       0.17371376
H       12.81326200       9.14002900      11.79224800       0.00437246       0.00034904       0.00444606       0.06261398      -0.64945454      -0.74316606       0.05824152      -0.64980358      -0.74761212
O       12.00000000      12.00000000      12.00000000       0.01063499       0.00665187      -0.01009036      -0.68212107      -0.33913434      -1.01012290      -0.69275606      -0.34578621      -1.00003254
H       12.59239900      12.74266700      11.83195300      -0.00464355      -0.01346445       0.00646861      -0.12244155      -0.15968460       0.17442823      -0.11779800      -0.14622015       0.16795962
H       11.49735000      11.79780900      11.15567100       0.00169418       0.01176321       0.01701418       0.85196040       0.25495195       1.02201394       0.85026622       0.24318874       1.00499976
O       10.81136900      10.96420400       9.75572200       0.01109751      -0.01090383       0.00367554      -1.36952643       1.08641756      -2.02163116      -1.38062394       1.09732139      -2.02530670
H       10.33053800      10.12977900       9.81645400       0.00433567      -0.00313079      -0.01952790       0.18101272      -0.08326652       0.21176034       0.17667705      -0.08013573       0.23128824
H       10.33350500      11.45188000       9.00365800      -0.01098942       0.00823873       0.00835139       1.12064291      -1.01413197       1.71610469       1.13163233      -1.02237070       1.70775330
O       12.95151300       9.27878500      14.18693700      -0.00467057       0.01064235       0.01874826      -0.07621486       0.09470299       0.01596434      -0.07154429       0.08406064      -0.00278392
H       13.69236800       9.86388800      14.00522000      -0.00939697      -0.00008796      -0.01774593      -0.05673433       0.11599960       0.07611016      -0.04733736       0.11608756       0.09385609
H       12.24351400       9.85468600      14.52649600       0.01177773      -0.00896788      -0.00016638       0.00538677      -0.19948461      -0.21531998      -0.00639096      -0.19051673      -0.21515360
O        9.95973600       8.57510900      12.63016700      -0.01300166      -0.00679349      -0.00329234      -1.56085406      -0.36388337      -0.16452907      -1.54785240      -0.35708988      -0.16123673
H        9.24175500       7.90990300      12.56049600      -0.00210596       0.00892372       0.00085085       0.64168595       0.66185481       0.07728300       0.64379191       0.65293109       0.07643215
H       10.75169900       8.06971300      12.49281800       0.01686274       0.00028022      -0.00131220       0.90024232      -0.31467770      -0.08801324       0.88337958      -0.31495792      -0.08670104
O       10.34386700      13.01400000      16.40684700      -0.00049515       0.00006049      -0.00989977      -1.47988935      -0.28412641      -0.68676654      -1.47939420      -0.28418690      -0.67686677
H       11.20105000      13.17924600      16.75565500       0.00550218       0.00199182       0.01903018       1.03631432      -0.21128376       0.14632663       1.03081214      -0.21327558       0.12729645
H       10.34465100      12.30709200      15.72672500       0.00329920       0.00013172      -0.01568248       0.44891449       0.41118016       0.41791413       0.44561529       0.41104844       0.43359661
O       13.89011700      13.36010100      13.83079300       0.00144237       0.00862223       0.01245236      -3.20336014       0.71353471      -0.00212229      -3.20480251       0.70491248      -0.01457465
H       13.26668800      13.37398100      14.59837800      -0.00771338       0.00784370      -0.00589738       0.56112855       0.03727123      -1.12039027       0.56884193       0.02942753      -1.11449289
H       14.68545500      13.11491600      14.20996000      -0.00826954      -0.01033718      -0.01130809       2.65878225      -0.71782578       1.07848082       2.66705179      -0.70748860       1.08978891
27
Properties=species:S:1:pos:R:3:REF_forces:R:3:DFT_forces:R:3:FOUNDATION_forces:R:3 REF_energy=0.009928713403496658 charge=0 spin=1 external_field="0.0 0.0 0.0" config_type=ORCA_DFT source_file=C_DFTprod_cutcluster_0266.out orca_step=0 DFT_energy=-18719.515461911597 FOUNDATION_energy=-18719.525390625 pbc="F F F"
O       12.18123200      15.30650200      14.14139700      -0.01221987      -0.00143036       0.00275557       0.33434865      -0.44879180       0.29906874       0.34656852      -0.44736144       0.29631317
H       11.52098800      15.73645600      13.59717500      -0.00092420       0.00994576       0.00186959       0.08033428      -0.10391412      -0.43599480       0.08125848      -0.11385988      -0.43786439
H       12.63247400      14.60609300      13.63981400       0.02343541      -0.00180904      -0.00165106      -0.40607852       0.53794887       0.11495079      -0.42951393       0.53975791       0.11660185
O       15.35698900      13.20025000      11.92581900      -0.00807526       0.00321591       0.01527648      -0.54092940       0.73825818      -0.02953303      -0.53285414       0.73504227      -0.04480951
H       14.63903600      13.78922300      11.64503300      -0.00189088       0.00557927      -0.01569482       0.52082707      -0.01223454       0.14864556       0.52271795      -0.01781381       0.16434038
H       15.14328100      12.38408000      11.46028700      -0.00767844      -0.00969489       0.00731714       0.04969115      -0.48456068      -0.01828893       0.05736959      -0.47486579      -0.02560607
O       14.77488700      10.85338700      10.56774000      -0.01213697      -0.00453759       0.00060558       0.08208916       0.69354104      -0.69951135       0.09422613       0.69807863      -0.70011693
H       14.04537400      10.28267500      10.78874500       0.02503519       0.01930261       0.02374194      -0.22100515      -0.53478986       0.64844070      -0.24604034      -0.55409247       0.62469876
H       15.56016700      10.31579100      10.52790700      -0.00799053      -0.00237690      -0.00926635       0.34762670      -0.32146521       0.08312012       0.35561723      -0.31908831       0.09238647
O       12.00000000      12.00000000      12.00000000       0.04744072       0.00037193       0.01162975       0.10775345       1.92188644       0.18666277       0.06031273       1.92151451       0.17503302
H       12.22937500      12.84813400      11.56563600       0.01262147      -0.01420905      -0.02060593      -0.21077741      -0.92948826       0.13614429      -0.22339888      -0.91527921       0.15675022
H       12.09561900      11.27729200      11.37849300      -0.03043137       0.02019579       0.03157747       0.11131366      -0.44936361      -0.84554904       0.14174503      -0.46955940      -0.87712651
O        9.92946000      12.63877700       9.31679100      -0.00112854       0.00434342      -0.00548914       0.20011592      -0.59612975       1.34561250       0.20124446      -0.60047317       1.35110164
H       10.06145900      11.86175700       9.91343800      -0.01242474       0.01231855       0.00307982      -0.25108362       0.74490654      -0.84736187      -0.23865888       0.73258799      -0.85044169
H        9.79565900      13.35047400       9.97694000      -0.00231788      -0.01446008      -0.01136277       0.11538299      -0.24004721      -0.43672047       0.11770087      -0.22558713      -0.42535770
O       12.16612300       9.77929700      10.48875200      -0.00267880      -0.01898668      -0.01438271       0.37775124      -0.20846681      -1.06669067       0.38043004      -0.18948013      -1.05230796
H       12.57304400       9.89921100       9.58866900       0.00306803       0.00597053      -0.00758536      -0.95607275      -0.60560740       1.07891457      -0.95914078      -0.61157793       1.08649993
H       11.70452700       8.91970300      10.57314200       0.00083872      -0.00203295       0.01087281       0.45808011       0.75628404      -0.37585104       0.45724139       0.75831699      -0.38672385
O        9.75175900      14.65572100      11.49529600       0.00245519       0.00781882       0.01515924      -0.74690537      -0.72190797       2.44138085      -0.74936056      -0.72972679       2.42622161
H        9.74012600      14.26831400      12.43885900      -0.01781369      -0.00106293      -0.01422292       0.24514859       0.68941468      -2.13682014       0.26296228       0.69047761      -2.12259722
H        8.82498000      14.95236400      11.42832200       0.00652413      -0.01008627       0.00023151       0.47902895       0.01059295      -0.23297971       0.47250482       0.02067922      -0.23321122
O        9.84314800      10.74669900      12.83029200      -0.04621507       0.03511560      -0.00542213       0.74838303       2.11200488       2.83879779       0.79459810       2.07688928       2.84421992
H       10.53963700      11.39301300      12.50418900       0.02417889      -0.00059272      -0.01279600      -0.98594913      -0.95430250       0.19704077      -1.01012802      -0.95370978       0.20983677
H        9.81590400      11.08967100      13.81556300       0.03426266      -0.03826078       0.00411130      -0.21630975      -1.35445591      -2.77825736      -0.25057241      -1.31619513      -2.78236866
O       13.68340600      10.45901500      13.47886900       0.00592864       0.00926308      -0.02797370      -1.00415742      -0.42428409      -0.11693676      -1.01008606      -0.43354717      -0.08896306
H       13.12744900       9.69553300      13.71645500      -0.00897865      -0.00089490       0.01292300       0.46971168       0.30001706       0.05139301       0.47869033       0.30091196       0.03847001
H       13.02038700      11.05879900      13.06920200      -0.01288400      -0.01300594       0.00530161       0.81168195      -0.11504489       0.45032258       0.82456595      -0.10203895       0.44502097
27
Properties=species:S:1:pos:R:3:REF_forces:R:3:DFT_forces:R:3:FOUNDATION_forces:R:3 REF_energy=0.021308005107130157 charge=0 spin=1 external_field="0.0 0.0 0.0" config_type=ORCA_DFT source_file=C_DFTprod_cutcluster_0267.out orca_step=0 DFT_energy=-18719.394707619893 FOUNDATION_energy=-18719.416015625 pbc="F F F"
O       12.93669900      10.19639200       9.89032500       0.02249892       0.01099545      -0.01353366      -0.61875407       1.33497852      -2.29982264      -0.64125299       1.32398307      -2.28628898
H       12.83827300       9.55389200      10.54712300      -0.00571307      -0.00219555       0.00933861      -0.32354184      -1.57608183       1.40723573      -0.31782877      -1.57388628       1.39789712
H       12.17760500      10.05260400       9.27262000      -0.00841365      -0.00271508       0.00163583       0.92958113       0.23026231       0.83692829       0.93799478       0.23297739       0.83529246
O       11.80155800      12.88034700      11.58021200      -0.00468148      -0.01096087       0.04784659       0.64397680       0.20398126       2.61528591       0.64865828       0.21494213       2.56743932
H       11.87509300      13.44841900      12.41270600       0.00719668       0.02583554      -0.00548349      -0.38530858      -0.64668695      -1.74105046      -0.39250526      -0.67252249      -1.73556697
H       12.00000000      12.00000000      12.00000000      -0.00163680       0.00978501      -0.02505640       0.03584200       0.72048338      -0.75433514       0.03747880       0.71069837      -0.72927874
O       11.95624700      10.52468200      13.03314700       0.00464918       0.00011565       0.01305535       0.60358919      -2.30605505       0.18406334       0.59894001      -2.30617070       0.17100799
H       11.32936700      10.13512200      13.66538100      -0.00545993      -0.01159744      -0.02364189      -0.08396894       0.54352559      -0.23499448      -0.07850901       0.55512303      -0.21135259
H       12.41213000       9.68555700      12.73656600      -0.00298121       0.00401236       0.01088342      -0.44380268       1.60855533       0.29186872      -0.44082147       1.60454297       0.28098530
O       10.70458200      15.54340700      13.00192100       0.01057154      -0.00674314      -0.00059473       0.34401116       1.50204866      -1.37136328       0.33343962       1.50879180      -1.37076855
H       11.38503400      15.29225700      13.61802200      -0.00114655      -0.00049732      -0.00836308       0.47825063      -0.39130167       0.81927447       0.47939718      -0.39080435       0.82763755
H       11.17750000      16.26259100      12.49779200      -0.00783519       0.00345736      -0.00869919      -1.10843186      -1.08609170       0.49927865      -1.10059667      -1.08954906       0.50797784
O       15.45703400      11.99014500      12.14907400       0.01202329      -0.00183313       0.01395374       0.04926563      -2.57261722      -0.95014924       0.03724234      -2.57078409      -0.96410298
H       15.74860000      12.76010800      11.72024100      -0.00853245      -0.01128438      -0.01108492       0.49501468       2.25849149      -0.49100659       0.50354713       2.26977587      -0.47992167
H       15.64754000      11.37831300      11.38243600       0.00590975       0.00747520      -0.00719288      -0.62219750       0.34769175       1.41941473      -0.62810725       0.34021655       1.42660761
O       12.68717800      14.42062800      14.46710700      -0.01051799      -0.00628082       0.02067426      -1.63204066      -0.18262146       0.52240321      -1.62152267      -0.17634064       0.50172895
H       13.57023500      14.52131400      14.15934500      -0.00757237      -0.00964481       0.00014629       1.22500019      -0.36458487       0.06913229       1.23257256      -0.35494006       0.06898600
H       12.58206200      13.76902900      15.17909700       0.01330923       0.00856215      -0.00686842       0.68439161       0.33522889      -0.47892657       0.67108238       0.32666674      -0.47205815
O       13.19231500      14.08852300       9.41101800       0.00594483      -0.00310105      -0.01114779       0.52235965       0.40818960      -0.13200312       0.51641482       0.41129065      -0.12085533
H       13.06887600      13.85267100      10.32475000      -0.00118188      -0.00962830       0.01819436       0.41231381      -0.27361918       1.03945343       0.41349569      -0.26399088       1.02125907
H       12.33093600      13.80470300       9.14421400      -0.01508371       0.00783530      -0.00698480      -0.89863960      -0.19149974      -0.99475881      -0.88355589      -0.19933504      -0.98777401
O        9.47713600      11.34797200      11.00210200      -0.00025057      -0.00171937       0.00229464      -0.34563564      -0.53962327      -0.12208175      -0.34538507      -0.53790390      -0.12437639
H       10.34444000      11.72620000      11.11598700      -0.00658796      -0.00710223       0.00340638       0.59665426       0.30703761      -0.31316748       0.60324222       0.31413984      -0.31657386
H        9.01816600      11.81148700      11.70616100       0.00111316      -0.00205525      -0.01763323      -0.58310218       0.16646814       0.20479640      -0.58421534       0.16852339       0.22242963
O        8.58227900      13.05776000      13.23056600       0.00944394       0.01358430       0.02219731       1.44379538       0.00465344       1.11549324       1.43435144      -0.00893086       1.09329593
H        9.25344000      13.75448100      13.11087000      -0.00256468      -0.00239760      -0.01809196      -0.50999136       0.42172235      -0.75453882      -0.50742668       0.42411995      -0.73644686
H        9.03738300      12.64827700      13.99645600      -0.00250067      -0.00190248       0.00074954      -0.90863122      -0.26253547      -0.38643010      -0.90613055      -0.26063299      -0.38717964
27
Properties=species:S:1:pos:R:3:REF_forces:R:3:DFT_forces:R:3:FOUNDATION_forces:R:3 REF_energy=0.023510711835115217 charge=0 spin=1 external_field="0.0 0.0 0.0" config_type=ORCA_DFT source_file=C_DFTprod_cutcluster_0268.out orca_step=0 DFT_energy=-18720.038989288165 FOUNDATION_energy=-18720.0625 pbc="F F F"
O       11.63130600       8.31924100      12.75342600       0.00420330      -0.00456553      -0.00225235      -0.47941693       1.29918022       0.71828472      -0.48362023       1.30374575       0.72053707
H       11.77656900       7.88329900      13.58538200       0.00187855       0.00681148      -0.00022582       0.42305865      -1.27835192       0.37198862       0.42118010      -1.28516340       0.37221444
H       11.36995100       9.16004500      13.18419900      -0.00522274       0.00483462       0.00174342       0.07903798       0.05336834      -1.10617377       0.08426072       0.04853372      -1.10791719
O       10.50202300      14.06217100       9.97625300      -0.01044148      -0.00592035       0.01592640       1.11863035       0.76129872       1.10115770       1.12907183       0.76721907       1.08523130
H       11.16232700      14.31749700       9.32018300       0.01565339      -0.01550043      -0.02094232       0.49444308       0.12243944      -0.34511961       0.47878969       0.13793987      -0.32417729
H        9.80544600      13.68970400       9.48413900      -0.01309738       0.01861286      -0.01431321      -1.57193968      -0.73012722      -0.88666957      -1.55884230      -0.74874008      -0.87235636
O        8.66209300      10.76786700      11.56917900       0.00516932      -0.00788555       0.02680250      -0.47148646      -1.43294594       0.41963734      -0.47665578      -1.42506039       0.39283484
H        9.61269300      10.89202400      11.57161300      -0.00503655       0.00069032       0.00403015       0.61832480       0.47457642      -0.05183036       0.62336135       0.47388610      -0.05586051
H        8.57649000       9.83161200      11.86465000      -0.00668508       0.00192790      -0.01928919      -0.12226368       1.03316693      -0.38790848      -0.11557860       1.03123903      -0.36861929
O       11.30183200      11.92009200      11.36555100      -0.02897090       0.04809878      -0.01082735      -1.63369805       0.97212312      -1.90930073      -1.60472715       0.92402434      -1.89847338
H       12.00000000      12.00000000      12.00000000       0.00401247      -0.01583834       0.00295378       0.78664393       0.43156247       0.72603084       0.78263146       0.44740081       0.72307706
H       11.04112800      12.81941800      10.89205500       0.02283182      -0.03957241       0.00363818       0.81640055      -1.72853916       1.44970778       0.79356873      -1.68896675       1.44606960
O       15.66917300      12.45895900      11.60307400       0.03046748      -0.01445170      -0.00062363       1.40816256      -1.32462998      -2.59831278       1.37769508      -1.31017828      -2.59768915
H       16.03564000      11.79257900      10.91477200      -0.02063805       0.00949665       0.00418314      -0.97011519       1.29065033       1.90919491      -0.94947714       1.28115368       1.90501177
H       15.94103600      13.27578000      11.15088400       0.00336143       0.00210764      -0.00298680      -0.22907523      -0.03924239       0.51703875      -0.23243666      -0.04135003       0.52002555
O       13.61090900      11.93008100      13.51502300       0.01701691       0.00840152       0.01519511      -0.70529751       1.42938650      -0.55876627      -0.72231442       1.42098498      -0.57396138
H       14.28175200      11.60659900      12.91858700      -0.00877410       0.00045751      -0.00229901       0.48223594      -0.37779741      -0.13398832       0.49101004      -0.37825492      -0.13168931
H       13.52859600      12.85844300      13.14986300       0.00131068      -0.01696460       0.00223993       0.04032848      -1.07637231       0.77854239       0.03901780      -1.05940771       0.77630246
O       13.24512800      14.41027000      12.17776800      -0.02590038       0.01600230      -0.00509764       0.40907992       0.47489482      -0.57118465       0.43498030       0.45889252      -0.56608701
H       13.82167700      14.77774900      11.48610400      -0.00062065      -0.00147301      -0.00009919      -0.16842018      -0.31184280       0.38110935      -0.16779953      -0.31036979       0.38120854
H       12.39487400      14.80104600      11.96762800       0.01079337      -0.00506477       0.00055491      -0.40446253       0.01038618       0.11429027      -0.41525590       0.01545095       0.11373536
O       12.80270000      14.25456200       8.21425200       0.00071690      -0.00956564      -0.00845600      -0.08105717      -1.17924576       0.24852645      -0.08177407      -1.16968012       0.25698245
H       12.58132800      14.09860600       7.28809500      -0.00146821       0.01650947       0.00408318       0.02511567       0.32283792      -0.01881600       0.02658388       0.30632845      -0.02289918
H       12.84081600      13.30383100       8.54975700      -0.00449075      -0.00677578       0.01827184      -0.18925311       0.94363113      -0.10426770      -0.18476236       0.95040691      -0.12253954
O       12.51298400      11.66913600       8.98606500       0.02738867       0.00242894      -0.00547948       1.81195007       0.29017987      -2.34201589       1.78456140       0.28775093      -2.33653641
H       12.03212600      11.44242700       9.77994500      -0.00683700       0.00121304       0.00875081       0.18722389      -0.52099517       1.35764398       0.19406089      -0.52220821       1.34889317
H       13.40804900      11.26894700       8.84177500      -0.00662086       0.00598521      -0.01548126      -1.67415009       0.09040760       0.92120108      -1.66752923       0.08442239       0.93668234
27
Properties=species:S:1:pos:R:3:REF_forces:R:3:DFT_forces:R:3:FOUNDATION_forces:R:3 REF_energy=0.005080311741039623 charge=0 spin=1 external_field="0.0 0.0 0.0" config_type=ORCA_DFT source_file=C_DFTprod_cutcluster_0269.out orca_step=0 DFT_energy=-18719.43437281326 FOUNDATION_energy=-18719.439453125 pbc="F F F"
O       11.77343100      11.12815100      12.42060800      -0.03778082      -0.03572567       0.01141944       0.43526548       1.13545935      -0.41100342       0.47304630       1.17118502      -0.42242286
H       12.00000000      12.00000000      12.00000000       0.03246954       0.02891564      -0.02868137      -0.43281496      -0.85282660       0.51277664      -0.46528450      -0.88174224       0.54145801
H       11.67578800      11.31334500      13.36375700      -0.01077263      -0.01314294       0.01309458       0.01908371      -0.00488510      -0.07954814       0.02985634       0.00825784      -0.09264272
O       15.62932700      12.38299200      11.64313100       0.01219278       0.01341207      -0.00985703      -0.03116172      -1.72236650       0.27039996      -0.04335450      -1.73577857       0.28025699
H       16.12109900      11.52870400      11.52491700      -0.00365595       0.00703637       0.00743466      -0.41530482       1.23034315      -0.00247052      -0.41164887       1.22330678      -0.00990518
H       15.01236200      12.12303400      12.35404500      -0.00412640      -0.01368661      -0.00992974       0.29851410       0.35345014      -0.26507752       0.30264050       0.36713675      -0.25514778
O       11.96660100      13.79595900      11.83538300      -0.01162469      -0.01627478      -0.03638148       0.13793034       2.48817411       0.27551100       0.14955503       2.50444889       0.31189248
H       12.19151700      14.26595300      12.69188500       0.00245397       0.00883460       0.00821243      -0.41355462      -0.78147817      -1.44637980      -0.41600859      -0.79031277      -1.45459223
H       11.83437200      14.54946600      11.18180200       0.00578201       0.01631542       0.00770236       0.24582263      -1.39318470       1.18770171       0.24004062      -1.40950012       1.17999935
O        8.78353700      13.04197100      13.04404400       0.00190081      -0.01226836      -0.00967588      -1.22089372       0.02274064       0.41331978      -1.22279453       0.03500900       0.42299566
H        9.56909900      13.10742400      12.53166500       0.00438833       0.00923951       0.00417664       1.06541633       0.08437981      -0.71395735       1.06102800       0.07514030      -0.71813399
H        8.11721600      12.73310000      12.40917200      -0.00748889      -0.00120356       0.00905997       0.27566655      -0.05830393       0.34783516       0.28315544      -0.05710037       0.33877519
O       12.91981700      11.68451100       9.51704900      -0.00510818       0.00388553       0.00390006       1.26043683       1.02105071       0.31686802       1.26554501       1.01716518       0.31296796
H       13.23085000      12.42566400       8.93409900      -0.00069004      -0.00522613       0.00645162      -0.26941466      -1.14063262       0.88094331      -0.26872462      -1.13540649       0.87449169
H       13.60211500      11.62212900      10.23949600       0.01208097       0.00037522       0.00308831      -0.75242316       0.21471582      -1.13496904      -0.76450413       0.21434060      -1.13805735
O       10.20766700      13.05451600       9.19679600      -0.04021841      -0.00295574      -0.00808919      -1.31534141       0.22030381      -0.70819098      -1.27512300       0.22325955      -0.70010179
H       10.62414700      13.36220900       8.38495800       0.02341986       0.00125048       0.00293159       0.23065594      -0.12359906       0.36243173       0.20723608      -0.12484954       0.35950014
H       10.83090400      12.99138500       9.90202600       0.02926890      -0.00560240       0.02753608       1.01545511      -0.18853412       0.32955138       0.98618621      -0.18293172       0.30201530
O       10.70091400       9.73016600       9.65286800       0.01112782      -0.01135724      -0.00075077      -1.79156030      -0.79659729       0.31231455      -1.80268812      -0.78524005       0.31306532
H       11.35399400      10.38452900       9.48375900      -0.01336973       0.00417041       0.00312150       0.73402173       1.11424708      -0.33201465       0.74739146       1.11007667      -0.33513615
H        9.81857200      10.16123200       9.62887400       0.00014602       0.00382971      -0.00563528       1.04972946      -0.28288225      -0.07892027       1.04958344      -0.28671196      -0.07328499
O        9.15420000      10.03946100      12.29640800       0.01016576       0.01139934      -0.00662803       0.85365362       0.58470089       1.37829996       0.84348786       0.57330155       1.38492799
H        9.96499500      10.41369100      11.91404400       0.01482833      -0.00342569       0.00242082      -0.15035164      -0.43880162      -0.59165259      -0.16517997      -0.43537593      -0.59407341
H        9.42814100      10.19234800      13.23528200      -0.01099697      -0.00250506       0.01475669      -1.00039914      -0.40298116      -0.86285030      -0.98940217      -0.40047610      -0.87760699
O       13.57589400       9.20694600      12.73856000       0.01424534      -0.00715497       0.00080353      -0.74726301       0.93159446       0.79621327      -0.76150835       0.93874943       0.79540974
H       13.06519900       9.98221700      12.36865500      -0.02347043       0.03392152      -0.01462415       0.74903414      -1.31909033       0.00839455       0.77250457      -1.35301185       0.02301870
H       14.26480300       8.85314100      12.19335500      -0.00516786      -0.01205614       0.00414185       0.16979690       0.10500355      -0.76552643       0.17496476       0.11705969      -0.76966828
27
Properties=species:S:1:pos:R:3:REF_forces:R:3:DFT_forces:R:3:FOUNDATION_forces:R:3 REF_energy=-0.013747287706792122 charge=0 spin=1 external_field="0.0 0.0 0.0" config_type=ORCA_DFT source_file=C_DFTprod_cutcluster_0272.out orca_step=0 DFT_energy=-18720.076247287707 FOUNDATION_energy=-18720.0625 pbc="F F F"
O       10.22604500      12.82213500      14.14350000      -0.01046314       0.00923390       0.02715501       0.78255264      -0.02251613       0.12941906       0.79301578      -0.03175003       0.10226405
H       10.64941200      12.95248600      15.04407700      -0.00005720      -0.00214534      -0.01939595      -0.43894113      -0.45811596      -1.45573116      -0.43888393      -0.45597062      -1.43633521
H       10.93791800      12.79257100      13.45605300       0.00935598       0.01071547      -0.00569512      -0.70711986       0.19052364       0.94105910      -0.71647584       0.17980817       0.94675422
O       14.75290900      12.33847600      10.06958400      -0.01022336       0.00172417       0.00421444       0.63489088       1.65149157      -1.41218027       0.64511424       1.64976740      -1.41639471
H       15.12471800      11.48073600       9.88299600       0.00932672      -0.00460959       0.00477072       0.19193230      -0.56510008       0.01863361       0.18260558      -0.56049049       0.01386289
H       15.18545300      12.93348800       9.37638900      -0.00242037      -0.00102270      -0.00308879      -0.97523076      -1.15384639       1.50875739      -0.97281039      -1.15282369       1.51184618
O       11.68780300      12.50254800      16.36265200      -0.01454568      -0.01907062      -0.00048421       0.07462031       0.81829262       0.10117996       0.08916599       0.83736324       0.10166417
H       11.85863500      11.68470700      16.80484300       0.00811207      -0.00090687       0.00589064      -0.10871180      -1.00790183       0.50827834      -0.11682387      -1.00699496       0.50238770
H       12.51301900      12.65489300      15.90196600       0.00688698       0.01537034      -0.00485056       0.44564559       0.17752713      -0.31316512       0.43875861       0.16215679      -0.30831456
O       13.81031500      11.73696600      14.19882500      -0.02256641      -0.00459579      -0.00587735       0.81245699      -0.31225017      -0.87208900       0.83502340      -0.30765438      -0.86621165
H       13.14312400      11.57311500      13.47674800       0.02267923       0.00827177       0.01125228       0.86554672       0.22805245       0.37316161       0.84286749       0.21978068       0.36190933
H       14.71806100      11.48753100      13.86391900      -0.00878011      -0.00223997       0.00538118      -1.69755052       0.50437185       0.13761671      -1.68877041       0.50661182       0.13223553
O       13.88433700       8.39358500      11.80866400      -0.01209906      -0.01027764       0.00235964      -1.29990676      -0.17816795       2.56999685      -1.28780770      -0.16789031       2.56763721
H       13.37306600       8.34327500      12.69526600       0.01925074       0.00499314      -0.00899514       1.54802071       0.03750993      -1.90708038       1.52876997       0.03251679      -1.89808524
H       13.15669400       8.63139800      11.22598300      -0.00465260      -0.01202126      -0.00826229      -0.03715692       0.17648928      -0.42598663      -0.03250432       0.18851054      -0.41772434
O       10.05427000       9.73702400      14.18360300       0.00407208      -0.01590212       0.02775896      -0.18578299       2.05714576      -0.00790573      -0.18985507       2.07304788      -0.03566469
H        9.20521000       9.56264500      14.60578500       0.00624441       0.00579560      -0.02042506       0.08835149      -0.19454732      -0.04180881       0.08210708      -0.20034292      -0.02138375
H       10.06393600      10.75404800      14.18776100       0.00068179       0.00512679       0.00055755       0.12993050      -1.58453660      -0.02356930       0.12924871      -1.58966339      -0.02412685
O       11.90875200       9.50284100      10.16353100      -0.00873666       0.00763757       0.02182291      -2.13120752      -1.25319259      -0.68518223      -2.12247086      -1.26083016      -0.70700514
H       12.16411400       9.48468100       9.22867200      -0.00343945       0.00228403      -0.00712865       0.17473496       0.20078070       0.22461786       0.17817441       0.19849667       0.23174651
H       11.05552300       8.95622900      10.13164200       0.01542117      -0.00074191      -0.00275030       1.67290439       1.12787085       0.34844986       1.65748322       1.12861276       0.35120016
O       12.00000000      12.00000000      12.00000000      -0.00326774       0.01089373       0.01800258       0.30680879      -0.52921298      -0.91947680       0.31007653      -0.54010671      -0.93747938
H       11.49414500      11.23567600      11.65224800       0.00177113      -0.00092326      -0.01390286       0.38841201       0.46900247       0.25816212       0.38664088       0.46992573       0.27206498
H       12.63896500      12.19677000      11.27671100       0.00637050      -0.00954604      -0.02181695      -0.43246041      -0.06184949       0.63793214      -0.43883091      -0.05230345       0.65974909
O       13.93239400       9.62036700      15.86438500      -0.00504257       0.01978172      -0.00429141      -1.31334926       1.55464197      -1.14961492      -1.30830669       1.53486025      -1.14532351
H       14.86536500       9.62880400      15.95292900       0.00882620      -0.00779160      -0.00196069       1.47242600      -0.36295973       0.44232655       1.46359980      -0.35516813       0.44428724
H       13.81333800      10.44140200      15.26880200      -0.01270451      -0.01003414      -0.00024100      -0.26181633      -1.50950306       1.01419918      -0.24911182      -1.49946892       1.01444018
27
Properties=species:S:1:pos:R:3:REF_forces:R:3:DFT_forces:R:3:FOUNDATION_forces:R:3 REF_energy=0.00785636208820506 charge=0 spin=1 external_field="0.0 0.0 0.0" config_type=ORCA_DFT source_file=C_DFTprod_cutcluster_0274.out orca_step=0 DFT_energy=-18719.81636238791 FOUNDATION_energy=-18719.82421875 pbc="F F F"
O       10.14065800      15.55862600      12.17187800       0.00306073      -0.01074355       0.01573304      -0.07738718      -0.91747921      -0.11191961      -0.08044791      -0.90673566      -0.12765265
H       10.18678700      15.16697200      11.27909900       0.00520468      -0.00369123      -0.01261116       0.18300857       0.19480499       0.54023664       0.17780389       0.19849622       0.55284780
H       10.52350200      14.88282500      12.78830200      -0.00014087       0.01264784      -0.00040601      -0.11900316       1.00569716      -0.81321911      -0.11886229       0.99304932      -0.81281310
O       10.76011100      13.74412900       9.60832300       0.00092973      -0.00815131       0.00885324       0.14045809      -0.86767616       0.72141777       0.13952836      -0.85952485       0.71256453
H        9.89524400      13.54327100       9.23884500       0.00133317       0.00144927      -0.00356287      -0.05575597      -0.06255099       0.01732538      -0.05708914      -0.06400026       0.02088825
H       10.96669300      12.99164800      10.22453800      -0.00008977       0.00657797      -0.00909240      -0.03044145       0.89481735      -0.64549036      -0.03035168       0.88823938      -0.63639796
O        8.16458700      14.09066900      14.35232200       0.00752516      -0.00291047       0.00960569      -0.41444700       1.59585228      -0.32182424      -0.42197216       1.59876275      -0.33142993
H        7.86172900      14.30299600      13.41779200      -0.00102329       0.00470867      -0.00050723       0.75698209       0.00684037       1.82276166       0.75800538       0.00213170       1.82326889
H        8.16346600      14.95283200      14.87382800       0.00498103      -0.00453969      -0.00603150      -0.17541815      -1.53641423      -1.40682851      -0.18039918      -1.53187454      -1.40079701
O       11.14322600      14.17988900      14.25665600       0.01077733       0.00483331      -0.02867442       1.01988373      -0.79031727       1.15040487       1.00910640      -0.79515058       1.17907929
H       11.77723200      14.05787800      15.01315900      -0.00215328      -0.00220310       0.01801416      -0.67056006       0.50737537      -1.16397623      -0.66840678       0.50957847      -1.18199039
H       10.25841800      13.99765300      14.58554600      -0.01158259       0.00302845       0.01365962      -0.40642763      -0.14097524       0.13182057      -0.39484504      -0.14400369       0.11816095
O       13.71827200      15.00918200      15.21983900      -0.00726023       0.00116868      -0.00645000       0.57658556      -0.36465316       0.05678349       0.58384579      -0.36582184       0.06323349
H       14.21833900      15.11364500      16.04312100      -0.00805396      -0.00634088       0.00254432      -0.14296954      -0.01921812      -0.31723281      -0.13491558      -0.01287724      -0.31977713
H       14.36907300      14.68063400      14.57004300       0.00958616       0.00377642       0.00237706      -0.45646104       0.30713161       0.25850346      -0.46604720       0.30335519       0.25612640
O       14.64892100      14.50595800      11.51768900      -0.01346577      -0.00609687      -0.01499970      -0.75865079      -2.42454794      -1.11003335      -0.74518502      -2.41845107      -1.09503365
H       15.34231400      14.07091000      10.96151500       0.01465317      -0.00044150      -0.00458919      -0.63932989       0.80465662       0.70166094      -0.65398306       0.80509812       0.70625013
H       13.88280200      13.86071000      11.33520800      -0.01385876       0.00243926       0.00295458       1.30307642       1.57176721       0.50781605       1.31693518       1.56932795       0.50486147
O       12.76525800      14.73344100       7.57031900       0.00149722      -0.00186422       0.00834961      -0.10525537      -0.97192576      -0.95418315      -0.10675259      -0.97006154      -0.96253276
H       12.70440700      13.99793100       6.92752200      -0.00580588      -0.00069651      -0.00234685       0.43621936       0.70333633       0.19734632       0.44202524       0.70403284       0.19969317
H       12.02657900      14.48332600       8.12837200       0.01116518       0.00291715      -0.00338259      -0.27426340       0.22296819       0.84430108      -0.28542858       0.22005104       0.84768367
O       12.00000000      12.00000000      12.00000000       0.01659084       0.01272927       0.00944760      -0.24669366       0.11819239       0.14413338      -0.26328450       0.10546312       0.13468578
H       11.67491700      12.30820000      12.86096800      -0.00903871      -0.01609425       0.00236552       0.16302652       0.10746286      -0.16636314       0.17206523       0.12355711      -0.16872866
H       12.86939400      11.61203300      12.15029100      -0.01234902       0.00172093      -0.01381954      -0.05955133       0.07016412      -0.11507873      -0.04720231       0.06844319      -0.10125919
O       14.08776500      11.38975800      10.09472200      -0.00134889      -0.00967055       0.00207332       0.55703803       2.02886290       1.30865494       0.55838692       2.03853345       1.30658162
H       13.81529100      10.61976400       9.68603200       0.01142706       0.00307830       0.00813361      -1.53817914      -2.63278310      -1.12154845      -1.54960620      -2.63586140      -1.12968206
H       14.94217900      11.47444600       9.69727200      -0.01256101       0.01236874       0.00236227       1.03451629       0.58861154      -0.15546886       1.04707730       0.57624280      -0.15783113
27
Properties=species:S:1:pos:R:3:REF_forces:R:3:DFT_forces:R:3:FOUNDATION_forces:R:3 REF_energy=0.026184125683357706 charge=0 spin=1 external_field="0.0 0.0 0.0" config_type=ORCA_DFT source_file=C_DFTprod_cutcluster_0275.out orca_step=0 DFT_energy=-18719.460143999317 FOUNDATION_energy=-18719.486328125 pbc="F F F"
O       11.09682400      14.88893700      13.80272200      -0.01677255       0.00434312       0.00861008      -0.28137831       0.43034634      -0.68307989      -0.26460576       0.42600322      -0.69168997
H       10.22666100      15.10342600      13.39612900       0.00121383      -0.00209772      -0.00602399       1.08018331       0.02697987       0.41020442       1.07896948       0.02907759       0.41622841
H       11.76206200      15.52970900      13.47109200       0.00709965      -0.00924133       0.00322599      -0.68727932      -0.45880758       0.16927332      -0.69437897      -0.44956625       0.16604733
O       11.62019500       8.89311200      11.00710200      -0.00681562      -0.01446768       0.00783949       0.96185177      -0.65368148      -0.39315976       0.96866739      -0.63921380      -0.40099925
H       10.68229500       8.93888400      11.08307300      -0.00772603      -0.00694598      -0.00175701      -1.28764255       0.54546307       0.32323505      -1.27991652       0.55240905       0.32499206
H       11.72582100       8.07416100      10.50009900       0.01132283       0.01160063      -0.00622929       0.37221334       0.25366326       0.14260193       0.36089051       0.24206263       0.14883122
O       11.47848900      12.26318600      12.72240300       0.01566337       0.00513119       0.00183777      -1.73506035      -1.28650957       1.00519399      -1.75072372      -1.29164076       1.00335622
H       12.00000000      12.00000000      12.00000000      -0.03156404       0.00556618       0.00063993       1.73581286      -0.18537557      -1.41294764       1.76737690      -0.19094175      -1.41358757
H       11.60453300      13.16277900      12.95725500       0.01060432       0.00501679       0.01530341       0.40878594       1.54887472       0.52682952       0.39818162       1.54385793       0.51152611
O        9.04856800      12.24862200      11.38254200       0.00085858       0.00790357       0.00964143      -1.62435862       1.67589139       0.23641866      -1.62521720       1.66798782       0.22677723
H        8.69782500      13.05573000      11.83857100      -0.00479413      -0.00416075      -0.00330405      -0.29393990      -1.16159652      -0.77141611      -0.28914577      -1.15743577      -0.76811206
H        9.92961800      12.34437000      11.70774300      -0.01561704       0.00529553      -0.01318378       1.60363516      -0.64090495       0.48731922       1.61925220      -0.64620048       0.50050300
O       13.72892000      11.01683500      11.44983900       0.02947709      -0.02200120      -0.00254799      -0.92009726      -1.39912909      -1.67941643      -0.94957435      -1.37712789      -1.67686844
H       14.17204400      11.12595400      10.55762600      -0.00114190      -0.01017843      -0.00975052      -0.90069365      -0.41231818       1.59022578      -0.89955175      -0.40213975       1.59997630
H       13.06385900      10.23691600      11.34668200      -0.00202372       0.01855215       0.00584699       1.65351508       1.66730818      -0.04514611       1.65553880       1.64875603      -0.05099310
O       15.61391300      13.22697600      13.42793300      -0.01512624      -0.00194516      -0.00440321      -2.17086078       2.06310234      -1.01803074      -2.15573454       2.06504750      -1.01362753
H       14.83886200      13.91427300      13.19199400       0.01649594      -0.00705450       0.01895168       2.66241264      -1.89403861       1.05807557       2.64591670      -1.88698411       1.03912389
H       16.28092400      13.72039100      13.92646600       0.00712547       0.01422699       0.00047266      -0.37573534      -0.06594674      -0.06298236      -0.38286081      -0.08017373      -0.06345502
O       14.53432100      11.52033700      15.30520100       0.00673366       0.01045439      -0.03363826      -0.58582091      -0.94192901      -1.18032362      -0.59255457      -0.95238340      -1.14668536
H       14.13890500      10.65886400      15.01242900      -0.00197716       0.01303800       0.01282621       0.51467972       1.25935717       0.47246266       0.51665688       1.24631917       0.45963645
H       14.68091600      12.01574400      14.45923500      -0.00987604      -0.01548985       0.01711395       0.11225504      -0.48439387       0.91791203       0.12213108      -0.46890402       0.90079808
O       13.87863400      15.35145600      12.61058500       0.00228542      -0.00907758      -0.00330592       0.48996586       0.12745309      -1.27942253       0.48768044       0.13653067      -1.27611661
H       13.91554500      14.95258100      11.71989900      -0.01201485       0.00212414      -0.00599948      -0.57017456      -0.24022559       0.39952874      -0.55815971      -0.24234973       0.40552822
H       14.53177700      16.04782000      12.43914400       0.01056367       0.00339815      -0.00237022      -0.10899401       0.20692924       0.68482299      -0.11955768       0.20353109       0.68719321
O       10.43721800       9.94378900      14.13079200      -0.00698705       0.00105531      -0.02139715       1.36902039      -0.68710058      -1.43701795       1.37600744      -0.68815589      -1.41562080
H       11.07504100      10.54406000      13.63253500       0.01441799       0.01018074       0.00855712      -1.22922148      -0.84464154       0.93576829      -1.24363947      -0.85482228       0.92721117
H       10.61718600       9.02788800      13.77862600      -0.00142590      -0.01522654       0.00304466      -0.19307413       1.55123037       0.60307091      -0.19164823       1.56645691       0.60002625
27
Properties=species:S:1:pos:R:3:REF_forces:R:3:DFT_forces:R:3:FOUNDATION_forces:R:3 REF_energy=0.0029607380893139634 charge=0 spin=1 external_field="0.0 0.0 0.0" config_type=ORCA_DFT source_file=C_DFTprod_cutcluster_0277.out orca_step=0 DFT_energy=-18719.96969551191 FOUNDATION_energy=-18719.97265625 pbc="F F F"
O       12.28416200      11.60845900       7.09102400       0.01617863      -0.00887140       0.01377474      -0.29976041      -0.15152247       0.75458484      -0.31593904      -0.14265107       0.74081010
H       13.11895900      11.29049300       7.45688100      -0.00499297       0.00286152      -0.00750278      -0.00661329       0.03557934      -0.22877421      -0.00162032       0.03271782      -0.22127143
H       11.66273400      11.45202800       7.84948600      -0.00651381       0.00142791      -0.00391382       0.46058627       0.14959790      -0.65868074       0.46710008       0.14816999      -0.65476692
O       13.09111100      14.18162200       8.35157800      -0.00751632      -0.00918076       0.00118438      -0.11033849      -0.61615232      -0.23751385      -0.10282217      -0.60697156      -0.23869823
H       13.56307900      13.71750900       9.06597400      -0.00291228       0.00306723      -0.00945671      -0.29680323       0.05069059      -0.37623824      -0.29389095       0.04762336      -0.36678153
H       12.74115400      13.47816300       7.75263900       0.00254792       0.00904527      -0.00019900       0.39034054       0.55573299       0.64780440       0.38779262       0.54668772       0.64800340
O       15.68265400       9.69868100      13.68025200      -0.01563587      -0.00705263      -0.00365220      -2.84423413      -0.42403233      -0.12896922      -2.82859826      -0.41697970      -0.12531702
H       15.33548800       9.61003500      12.72655100       0.00417820       0.00307152       0.00326280       0.63580779       0.26729298       2.20140533       0.63162959       0.26422146       2.19814253
H       14.86862200       9.60722600      14.31626900       0.01133231       0.00105413      -0.00382488       2.29605798       0.20673820      -2.13623398       2.28472567       0.20568407      -2.13240910
O       13.31795700       8.18820200       9.90276600      -0.00641937      -0.00032860       0.00000407      -1.15463598      -0.16546845      -2.14546393      -1.14821661      -0.16513985      -2.14546800
H       12.85354400       8.11885000       8.99630000       0.00550685       0.01885913       0.00883295       1.17344365       0.24645789       2.11976339       1.16793680       0.22759876       2.11093044
H       12.58176900       8.22203200      10.52348100       0.00870721      -0.00699627      -0.00515592      -0.00674786       0.01221043       0.06540712      -0.01545507       0.01920670       0.07056304
O       11.17074300       9.97070100      15.02562800       0.00717557      -0.00429478       0.00030345       1.03080547      -0.44014153       2.64817351       1.02362990      -0.43584675       2.64787006
H       12.05492000      10.32452200      14.93616200      -0.01536499       0.00304160      -0.00384265       0.16861270       0.17947150      -0.04190811       0.18397769       0.17642990      -0.03806546
H       10.79172400      10.05210100      14.19791000       0.00621666       0.00701076       0.00259235      -1.18848990       0.33764845      -2.66209481      -1.19470656       0.33063769      -2.66468716
O       14.30221600      12.52709600      10.65923700       0.00991742      -0.00878641      -0.00037722      -0.70035632      -2.54306552      -1.32919220      -0.71027374      -2.53427911      -1.32881498
H       14.56951400      11.55760300      10.41283000      -0.00588806       0.01207355      -0.00752864      -0.00333148       2.20638088       0.64993276       0.00255658       2.19430733       0.65746140
H       15.08832900      12.93121500      10.98277500      -0.00761825      -0.00909903       0.01913566       0.96813673       0.39679406       0.51883287       0.97575498       0.40589309       0.49969721
O       12.00000000      12.00000000      12.00000000       0.00165240      -0.01096114       0.00836401      -0.06693919      -2.83368644      -0.31695343      -0.06859159      -2.82272530      -0.32531744
H       11.57190700      12.79904900      12.19738100      -0.00581898       0.00136672      -0.00721468      -0.35919841       1.86265861       0.09412804      -0.35337943       1.86129189       0.10134272
H       12.79911600      12.09476500      11.45881000       0.00599004       0.01755722      -0.01020190       0.19144271       1.02618726       0.26020178       0.18545267       1.00863004       0.27040368
O       15.37876400      10.01673100      10.55571800       0.01155851       0.00227143       0.00475847       0.67717365       0.10776569      -0.18119285       0.66561514       0.10549426      -0.18595132
H       14.66338800       9.42315600      10.33860600      -0.00978327      -0.01403661       0.00073413      -1.05088306      -0.75340970      -0.14293278      -1.04109979      -0.73937309      -0.14366691
H       16.07399600       9.68264800       9.97134400       0.00464706      -0.00618847      -0.00952386       0.16973607       0.32715712       0.24485929       0.16508901       0.33334559       0.25438315
O       10.91730500      10.92831100       9.35953000      -0.00106065      -0.00303741       0.00265103       0.27922074       0.16985778       0.84076201       0.28028139       0.17289519       0.83811098
H       10.11095800      10.40060200       9.31447400       0.00211488      -0.00805784       0.00230619       0.12201053       0.30825298       0.42627325       0.11989565       0.31631082       0.42396706
H       11.07817400      11.29117900      10.27492600      -0.00819875       0.01418362       0.00448955      -0.47504307      -0.51899578      -0.88598036      -0.46684432      -0.53317940      -0.89046991
27
Properties=species:S:1:pos:R:3:REF_forces:R:3:DFT_forces:R:3:FOUNDATION_forces:R:3 REF_energy=0.01733953779330477 charge=0 spin=1 external_field="0.0 0.0 0.0" config_type=ORCA_DFT source_file=C_DFTprod_cutcluster_0280.out orca_step=0 DFT_energy=-18720.543207337207 FOUNDATION_energy=-18720.560546875 pbc="F F F"
O        7.95212500      13.30824600      12.70312400      -0.01658220      -0.02288833      -0.00731344      -0.14058726       0.31794799      -0.59291376      -0.12400506       0.34083632      -0.58560032
H        7.52929500      13.97000900      13.25495000       0.01551076       0.00331439       0.01932502       0.04170643      -0.10596792       0.22076357       0.02619567      -0.10928231       0.20143855
H        8.42253100      12.68629200      13.29348800      -0.01129493       0.00929139      -0.00029551      -0.15780604       0.06477977       0.24953129      -0.14651111       0.05548838       0.24982680
O        9.20197600      11.69570400      14.35860100       0.01961831       0.01358127      -0.00708363      -2.22197410      -0.91203309       1.49384334      -2.24159241      -0.92561436       1.50092697
H        8.96482500      11.24405500      15.22105000      -0.00004956      -0.00356423      -0.01685376       0.70839790       0.95658178      -1.71465571       0.70844746       0.96014601      -1.69780195
H       10.13500300      11.67618900      14.25550800      -0.00868040       0.00307246       0.02895539       1.75137621      -0.15295514       0.37438484       1.76005661      -0.15602760       0.34542945
O       12.31970200      11.88880800      12.89814100       0.02340678      -0.00055165      -0.00107522       0.85631970       0.49913549      -0.18339212       0.83291292       0.49968714      -0.18231690
H       12.00000000      12.00000000      12.00000000      -0.00719990      -0.00003393       0.00564709      -0.83447005      -0.12532802      -0.52859530      -0.82727015      -0.12529409      -0.53424239
H       13.16929900      12.34354200      12.74257500      -0.00499852       0.02084060      -0.01580947       0.01564969      -0.09188902       0.36699328       0.02064821      -0.11272962       0.38280275
O       12.25516000      15.68724900      10.95593400       0.01250776      -0.01837394      -0.00689198      -0.89020345      -0.90756920      -0.67258896      -0.90271121      -0.88919526      -0.66569698
H       11.34269000      15.25950000      10.99317000       0.01641385       0.00147856       0.00307177       1.31405441       1.12194491       0.61824201       1.29764056       1.12046635       0.61517024
H       12.47872000      16.16108000      11.76283400      -0.02304412      -0.00003855      -0.00566128      -0.62840111      -0.22761957       0.18172888      -0.60535699      -0.22758102       0.18739016
O       11.81360000      11.18189900      15.44438400      -0.02287068       0.03076943      -0.01983131       0.41334672      -0.01703063      -0.57354106       0.43621740      -0.04780006      -0.55370975
H       11.48087600      10.41784100      15.93892700       0.01434138      -0.01483285       0.00589641       0.66194501       0.00453805      -0.64287601       0.64760363       0.01937090      -0.64877242
H       12.34951600      10.95631000      14.62921100      -0.01653306      -0.02408693       0.01329398      -1.13758735      -0.09226692       1.34403908      -1.12105429      -0.06817999       1.33074510
O       14.07872300      13.52975000      11.09347000      -0.00362009      -0.01913070      -0.00455724       0.64980107      -0.36461943       0.88860042       0.65342116      -0.34548873       0.89315766
H       14.17616600      12.98384600      10.32121700       0.01833308       0.00435223       0.00459346      -0.06493892      -0.19546973      -0.45716825      -0.08327200      -0.19982196      -0.46176171
H       13.42816500      14.20482400      10.88926600      -0.00951296       0.01761713      -0.00474392      -0.51877749       0.55664321      -0.21604796      -0.50926453       0.53902608      -0.21130404
O        9.50141300      14.67753200      10.89980800       0.01367981       0.00551464      -0.01208613      -0.37547087       1.95622255      -1.66086993      -0.38915068       1.95070791      -1.64878380
H        8.85736100      15.33000100      10.52057900      -0.00392654       0.00156775      -0.00732384       1.08317993      -0.77126637       0.40990751       1.08710647      -0.77283412       0.41723135
H        8.96578400      14.21321000      11.53727200      -0.01492302      -0.01042357       0.01304017      -0.56462268      -1.06110731       1.08068405      -0.54969966      -1.05068374       1.06764388
O       11.76123500      14.94337800      14.26463400       0.00564341      -0.02021756      -0.00197688       1.94133894      -1.53178229      -0.99646566       1.93569553      -1.51156473      -0.99448878
H       12.75339000      14.80436800      14.41102600      -0.00177315       0.00530029       0.00643045      -2.07963947       0.35874975      -0.14059061      -2.07786632       0.35344946      -0.14702106
H       11.57094000      14.19172800      13.62801200       0.00126013       0.00282806      -0.00199224       0.16739091       1.12202138       1.09355186       0.16613078       1.11919332       1.09554410
O       11.21877600      12.68042100      10.23073000       0.01169361      -0.00017192      -0.00319329       0.08987734       0.58988331      -0.03619167       0.07818373       0.59005523      -0.03299838
H       10.75326600      13.44128800       9.82630300       0.00485886       0.01225327       0.01582882       0.05342907      -0.61131109       0.53354714       0.04857021      -0.62356436       0.51771832
H       11.10977900      11.94448700       9.63869100      -0.01225889       0.00253299       0.00060688      -0.13333454      -0.38023230      -0.43992026      -0.12107565      -0.38276529      -0.44052714
27
Properties=species:S:1:pos:R:3:REF_forces:R:3:DFT_forces:R:3:FOUNDATION_forces:R:3 REF_energy=0.009407760564499767 charge=0 spin=1 external_field="0.0 0.0 0.0" config_type=ORCA_DFT source_file=C_DFTprod_cutcluster_0284.out orca_step=0 DFT_energy=-18720.342154739436 FOUNDATION_energy=-18720.3515625 pbc="F F F"
O        9.14147000      11.97617200      11.92856000       0.00055971      -0.00112279       0.00893270       0.14193637      -0.41302981      -0.29457779       0.14137666      -0.41190702      -0.30351049
H        8.74162300      12.82142700      11.71465600       0.02364059      -0.00587352       0.00133646       0.04190991       0.22218303       0.24947344       0.01826932       0.22805655       0.24813698
H        9.31487200      11.98358800      12.88919900      -0.01293648      -0.00011533      -0.01354459      -0.19882826       0.20441208      -0.13688138      -0.18589178       0.20452741      -0.12333679
O        9.67667100      12.22292100      14.70111400       0.01250533       0.00900328       0.00585007       0.19785977       0.40240395      -0.32313756       0.18535444       0.39340067      -0.32898763
H       10.29563500      12.97397800      14.55458100      -0.01079747      -0.00398547       0.00173128      -0.21191327      -0.65227771       0.42442298      -0.20111580      -0.64829224       0.42269170
H       10.20795900      11.41933500      14.74638200      -0.00005767      -0.01068502      -0.00449292       0.11634633       0.24740571       0.03626855       0.11640400       0.25809073       0.04076147
O       11.55473800      10.25017900      12.44933100       0.00841191      -0.01754314      -0.02282041       0.90702453      -0.46886733      -0.05458056       0.89861262      -0.45132419      -0.03176015
H       11.61145800       9.67197900      11.66809800      -0.01559383      -0.00718567       0.00670635      -0.31009090       0.31079456       0.27621888      -0.29449707       0.31798023       0.26951253
H       12.42704100      10.11784200      12.88292800      -0.00879097       0.00801883       0.00614763      -0.43910167       0.10638876      -0.23059804      -0.43031070       0.09836993      -0.23674567
O       12.08408000      13.85870900      14.47635700       0.00194700      -0.00569555       0.01382890      -1.27097897      -1.11131248      -0.73479912      -1.27292597      -1.10561693      -0.74862802
H       12.88152900      14.32383000      14.57345600      -0.00575002       0.00498460      -0.00930913       1.55721657       1.18351482       0.71424804       1.56296659       1.17853022       0.72355717
H       12.16227200      13.60308500      13.53107800       0.00031510      -0.00112923      -0.00182443      -0.18317199      -0.15152006       0.08968554      -0.18348709      -0.15039083       0.09150997
O       14.06884300      10.60597600      13.92921300       0.00624298      -0.00211920       0.00473853      -1.31571365       0.66360234       0.41571846      -1.32195663       0.66572154       0.41097993
H       13.44944200      10.76812300      14.68118700       0.01070251       0.01637132       0.00370290       0.85231598      -0.02695190      -0.73739825       0.84161347      -0.04332322      -0.74110115
H       14.67888500       9.94602100      14.23128900      -0.00803468      -0.01481654       0.00494593       0.45327004      -0.58151205       0.34475544       0.46130472      -0.56669551       0.33980951
O       10.48798500      11.53219600       9.25698700      -0.00119968       0.01273111       0.00313105      -0.54065933       0.30250928      -0.50076244      -0.53945965       0.28977817      -0.50389349
H        9.72077400      11.84783900       8.70175100       0.00253254      -0.01778634      -0.00167732       1.15092963      -0.51117839       1.62132497       1.14839709      -0.49339205       1.62300229
H       10.33513600      11.63678500      10.22536500      -0.00061314       0.01217987       0.00824021      -0.72499345       0.19311773      -0.97425873      -0.72438031       0.18093786      -0.98249894
O       12.36388900      12.90823300      11.91133900      -0.02769261      -0.02525210      -0.02077619       0.04283782      -0.66495901      -0.02568594       0.07053043      -0.63970691      -0.00490975
H       13.24152400      12.82732100      11.48186900      -0.00466569       0.00993583       0.00912729      -0.30697473       0.23062715       0.15332672      -0.30230904       0.22069132       0.14419943
H       12.00000000      12.00000000      12.00000000      -0.00474145       0.03423075      -0.00801579       0.09327639       0.29139898      -0.10577128       0.09801784       0.25716823      -0.09775549
O       10.43320400      14.77483300      11.64062000      -0.00016349       0.02607282       0.01135665      -2.01711815       1.84310146      -1.21210796      -2.01695466       1.81702864      -1.22346461
H       11.01710600      14.04667900      11.66530300       0.00884290      -0.01026136      -0.00348357       1.35996933      -1.50054163      -0.11698335       1.35112643      -1.49028027      -0.11349978
H       10.11926600      14.81601700      10.70695900       0.01053008      -0.02057960       0.00239596       0.45716372      -0.02228771       1.11799678       0.44663364      -0.00170811       1.11560082
O       14.98054200      12.93851200      11.07591900      -0.00678928       0.00040380      -0.01159625       0.53078614      -2.18528708       1.11114402       0.53757542      -2.18569088       1.12274027
H       15.43551400      13.77170700      11.23609100       0.01154147      -0.00828212       0.00478637       0.20642134      -0.31593739       0.34180197       0.19487987      -0.30765527       0.33701560
H       15.32632100      12.19079500      11.69161100       0.01005446       0.01850133       0.00058237      -0.58971942       2.40420275      -1.44884333      -0.59977388       2.38570142      -1.44942570
27
Properties=species:S:1:pos:R:3:REF_forces:R:3:DFT_forces:R:3:FOUNDATION_forces:R:3 REF_energy=-0.0029597823013318703 charge=0 spin=1 external_field="0.0 0.0 0.0" config_type=ORCA_DFT source_file=C_DFTprod_cutcluster_0287.out orca_step=0 DFT_energy=-18719.9502254073 FOUNDATION_energy=-18719.947265625 pbc="F F F"
O       12.78351200      14.34907900      10.59480800       0.00319721       0.02104600      -0.03901602       1.23671557       0.56155808       1.77416323       1.23351836       0.54051208       1.81317925
H       13.39403000      14.95592600      11.12318700       0.00495878       0.00106269       0.02127583      -1.36134431      -1.42527813      -1.03278034      -1.36630309      -1.42634082      -1.05405617
H       12.63973300      13.51757500      11.13049100      -0.00731699      -0.00858481       0.00752328       0.41180144       0.84185539      -0.49639048       0.41911843       0.85044020      -0.50391376
O        9.70978500      12.90664700      10.75700800       0.00432111       0.01841764       0.00742789       0.32558967       0.46437736       1.15979834       0.32126856       0.44595972       1.15237045
H        9.22594000      13.54621500      11.29096000       0.00355766      -0.01207946      -0.00799073      -0.71755936       0.05235296      -0.30456550      -0.72111702       0.06443242      -0.29657477
H       10.59367800      13.06970000      11.14750900      -0.00724601      -0.00076218       0.00110975      -0.12249050      -0.83487053      -0.29708657      -0.11524449      -0.83410835      -0.29819632
O       12.63720800      12.06408100      14.72923800      -0.00641684      -0.00501708      -0.00970811       0.07568742      -0.25480390       0.25431555       0.08210426      -0.24978682       0.26402366
H       12.51002600      11.38012300      15.41083200       0.00427201       0.00981466       0.00959310       0.12788272       0.52839367      -0.39375764       0.12361071       0.51857901      -0.40335074
H       13.48663900      12.48724100      14.89440100       0.00762857      -0.00926556       0.01232461      -0.01362232      -0.20016328       0.22540004      -0.02125089      -0.19089772       0.21307543
O       12.00000000      12.00000000      12.00000000       0.01089432       0.02788906      -0.02366375       0.85054650      -0.93040676       0.72530306       0.83965218      -0.95829582       0.74896681
H       12.19553600      12.08704800      12.98012700      -0.01807619      -0.00462834      -0.00299496      -0.36816184      -0.49608205      -1.28090698      -0.35008565      -0.49145371      -1.27791202
H       12.21883600      11.04073400      11.74521300       0.01642488      -0.01862522       0.00226756      -0.30256791       1.45526008       0.60532417      -0.31899279       1.47388530       0.60305661
O       11.04934900      13.70442400       8.59306100      -0.00085418      -0.03009248       0.00757018      -1.27254765      -1.37798536      -1.42233798      -1.27169347      -1.34789288      -1.42990816
H       10.46011500      13.35228000       9.27764000      -0.00476457       0.02042865       0.00119548      -0.19816594       0.06440418      -0.42344756      -0.19340137       0.04397553      -0.42464304
H       11.59985000      14.26897300       9.07758900      -0.00006249      -0.00216718       0.00746817       1.50481424       1.36237733       0.98427195       1.50487673       1.36454451       0.97680378
O        9.46784600      11.78223000      13.65317900       0.00302529       0.00948123      -0.00299827      -0.02153597      -1.17636772       0.89634993      -0.02456126      -1.18584895       0.89934820
H        9.60817600      11.55158500      12.73319500       0.00147885      -0.00900527      -0.00602272       0.10421926       0.10607704      -0.52879307       0.10274041       0.11508231      -0.52277035
H        9.50927600      10.90515700      14.10733900      -0.01332703      -0.00441897       0.01296131      -0.12337357       1.19345033      -0.44356372      -0.11004654       1.19786930      -0.45652503
O       12.78241600       9.31800100      11.48536300      -0.00560169      -0.00772149       0.00754775      -0.30091505       0.31317180      -0.12001874      -0.29531336       0.32089329      -0.12756649
H       13.52709400       9.15272200      12.05155100       0.00118218       0.00147058      -0.00381488       0.40596802      -0.24375726       0.70432949       0.40478584      -0.24522784       0.70814437
H       13.22170400       9.50928400      10.64722000       0.00482824       0.00323645      -0.00147038      -0.06641422      -0.04584745      -0.79845702      -0.07124246      -0.04908390      -0.79698664
O       13.74425500       9.87955900       8.78795100       0.00867104      -0.00536274       0.01095414       0.63337218       1.70947576       0.59789157       0.62470114       1.71483850       0.58693743
H       12.99006600       9.64817200       8.25333700      -0.00267443       0.00320638      -0.00452643      -0.44596389       0.03212912      -0.35920715      -0.44328946       0.02892274      -0.35468072
H       13.81300300      10.87693700       8.75261200      -0.01029202       0.00648563      -0.00543160      -0.26585579      -1.62973685      -0.11469080      -0.25556377      -1.63622248      -0.10925920
O       10.91962500      14.83945400      14.39951200      -0.02387669       0.00141964       0.01057495       3.29400537      -0.14302626      -0.48865239       3.31788206      -0.14444590      -0.49922734
H       10.49844300      14.19149400      13.84543800       0.01521247       0.00299162       0.00088429      -0.68291611      -0.66667795      -0.20163785      -0.69812858      -0.66966957      -0.20252214
H       11.90853700      14.62885300      14.18690000       0.01085631      -0.00921944      -0.01304037      -2.70716794       0.74012038       0.77914649      -2.71802425       0.74933982       0.79218686
27
Properties=species:S:1:pos:R:3:REF_forces:R:3:DFT_forces:R:3:FOUNDATION_forces:R:3 REF_energy=0.006748702628101455 charge=0 spin=1 external_field="0.0 0.0 0.0" config_type=ORCA_DFT source_file=C_DFTprod_cutcluster_0288.out orca_step=0 DFT_energy=-18719.350673172372 FOUNDATION_energy=-18719.357421875 pbc="F F F"
O        8.91088600      11.46600300      12.83728600       0.00574295       0.01615248      -0.01526520      -0.71539136       1.96112893       2.14155724      -0.72113431       1.94497645       2.15682244
H        9.53721800      11.13521100      13.50560800       0.00183085      -0.00489834       0.00781081      -0.00306661      -0.39987522      -0.29320719      -0.00489746      -0.39497688      -0.30101800
H        8.48042100      12.18808100      13.42176300       0.00301108      -0.00472060       0.00555646       0.70121244      -1.61553994      -1.77015889       0.69820136      -1.61081934      -1.77571535
O       16.35230900       9.86419600      11.92805200       0.00317478      -0.01462312      -0.00445217      -0.62579787      -1.96389277      -0.97539979      -0.62897265      -1.94926965      -0.97094762
H       16.03096900      10.76359800      11.90876500      -0.00216312       0.01324470      -0.00208437      -0.18321569       0.67103226       0.17150817      -0.18105257       0.65778756       0.17359254
H       15.78841900       9.34260300      11.29516800      -0.00277354       0.00506210       0.00192396       0.96157507       0.95072013       0.93067334       0.96434861       0.94565803       0.92874938
O       13.32885300       9.38573300      14.60225300      -0.00589006      -0.01598605      -0.00617725       1.41828592      -3.44190773       0.12000414       1.42417598      -3.42592168       0.12618139
H       14.09957800       8.93227000      14.09725400       0.00450774       0.00450588       0.00863460      -1.73241870       1.47083212       1.04382220      -1.73692644       1.46632624       1.03518760
H       13.02261900       8.59132400      15.17166200       0.00115629       0.01646407      -0.00532069       0.50265857       2.04166849      -1.25737753       0.50150228       2.02520442      -1.25205684
O       10.07474900      11.74393400       9.46372300      -0.00689495      -0.00559057       0.01790994      -1.15050519      -1.43633033       0.27576384      -1.14361024      -1.43073976       0.25785390
H       10.42008100      11.98491600      10.32732600       0.00179679       0.01040073      -0.01249922      -0.06427995      -0.04121443       0.52694439      -0.06607674      -0.05161516       0.53944361
H        9.54145300      10.91933100       9.66431100      -0.01420944      -0.00649581      -0.01128724       1.03938098       1.47465875      -0.39192393       1.05359042       1.48115456      -0.38063669
O       12.00000000      12.00000000      12.00000000      -0.01160134       0.00390097       0.01632669      -0.01418730       2.18894478      -0.64025698      -0.00258596       2.18504381      -0.65658367
H       12.16989600      11.11415700      12.20357800      -0.00344021       0.00171010       0.00467976       0.18314370      -2.37080057       0.32612153       0.18658391      -2.37251067       0.32144177
H       11.63962400      12.39341400      12.79671000      -0.00498853      -0.00290056      -0.01232691      -0.18346905       0.08301373       0.08733344      -0.17848052       0.08591429       0.09966035
O       10.77048500      10.44519000      15.00117100       0.00039338       0.00239956       0.01955901       0.33546178       0.36642295       0.89033298       0.33506840       0.36402339       0.87077397
H       10.83440300      10.61461800      15.96400800      -0.00759123      -0.00524766      -0.00376600      -0.33378331      -0.07585218      -0.77956527      -0.32619208      -0.07060452      -0.77579927
H       11.70454400      10.42241900      14.74104500       0.00816211      -0.00562017      -0.00949150      -0.07403410      -0.23970880      -0.16735528      -0.08219621      -0.23408863      -0.15786378
O       15.21335700      12.28476900      12.56475200      -0.00129867      -0.01735338      -0.00810081       1.33704090       0.52203647      -0.39769739       1.33833957       0.53938985      -0.38959658
H       14.62383400      12.19830000      11.82821100       0.00728888       0.00953205       0.00596450      -0.97570508       0.16958031      -0.36844744      -0.98299396       0.16004826      -0.37441194
H       14.76792300      11.96477700      13.33184800       0.00402927       0.00878657       0.00260863      -0.66395289      -0.35169681       0.73100695      -0.66798216      -0.36048338       0.72839832
O       12.53021500      12.68358500       8.50162100      -0.00653093      -0.01330509      -0.00454892       3.45012410       0.56152049      -0.60552199       3.45665503       0.57482558      -0.60097307
H       13.36745000      12.74346200       9.04240100       0.00953776       0.01447494       0.01438378      -1.62656992      -0.03684360      -0.85864748      -1.63610768      -0.05131854      -0.87303126
H       11.83044100      12.52985400       9.09076600       0.01588038       0.00167468      -0.00319024      -1.57843598      -0.55160395       1.18824164      -1.59431636      -0.55327863       1.19143188
O       11.91096600       9.10489100      10.53138400      -0.01014283       0.00301864      -0.01315105       0.21454464      -0.89506278       0.61950129       0.22468747      -0.89808142       0.63265234
H       12.00561400       8.19756800      10.88215600       0.01146213      -0.00777552       0.01720325      -0.34710183       0.60324332      -0.09808538      -0.35856396       0.61101884      -0.11528863
H       12.68231300       9.16448600       9.96735700      -0.00045051      -0.00681018      -0.01089950       0.12848667       0.35552616      -0.44916667       0.12893718       0.36233634      -0.43826717
27
Properties=species:S:1:pos:R:3:REF_forces:R:3:DFT_forces:R:3:FOUNDATION_forces:R:3 REF_energy=-0.003544183651683852 charge=0 spin=1 external_field="0.0 0.0 0.0" config_type=ORCA_DFT source_file=C_DFTprod_cutcluster_0292.out orca_step=0 DFT_energy=-18718.93518480865 FOUNDATION_energy=-18718.931640625 pbc="F F F"
O       10.03143800       7.85521400      15.21307400      -0.00153201      -0.00967361      -0.01072281      -0.55152028       0.09278078      -0.78409880      -0.54998827       0.10245439      -0.77337599
H        9.55242800       8.11185800      15.99937600       0.00709911       0.00583678       0.00165037      -0.00083103      -0.00594244       0.43693001      -0.00793014      -0.01177922       0.43527964
H        9.47775300       8.22157200      14.48853500      -0.01251250       0.00946580      -0.00343125       0.86042673      -0.10541457       0.48741538       0.87293923      -0.11488037       0.49084663
O       14.04187900       9.38072800       7.90367200      -0.01424236      -0.01071589       0.00603082      -0.46256931      -1.90674953      -1.47723792      -0.44832695      -1.89603364      -1.48326874
H       13.96293100       8.94506400       6.99878600       0.00102999      -0.00221158      -0.01054143       0.49813693       1.23712932       1.81783188       0.49710694       1.23934090       1.82837331
H       14.32559800      10.27501100       7.76457400       0.00360006       0.01088571      -0.00168984       0.16580382       0.66129267      -0.33789240       0.16220376       0.65040696      -0.33620256
O        9.64031000       9.15007000      12.66074100      -0.00495375      -0.01481573       0.01812606      -0.13032157       0.65457036       0.46645003      -0.12536782       0.66938609       0.44832397
H       10.38885500       8.66910400      12.31121300      -0.00621194       0.00482742      -0.01425836       0.03281787      -0.48413434      -0.20409598       0.03902981      -0.48896176      -0.18983762
H        8.86453600       8.59591200      12.58438200       0.01034452       0.00415276       0.00543143      -0.09320630      -0.28610395      -0.54418020      -0.10355082      -0.29025671      -0.54961163
O       14.27655700       8.67069200      12.70179900       0.00739024      -0.00311239       0.01587041      -0.17831620       0.87806527       0.46709343      -0.18570644       0.88117766       0.45122302
H       14.25240800       7.89654900      12.16342000       0.00068478      -0.01147407      -0.00659622       0.22638087      -1.10165351      -0.51752485       0.22569609      -1.09017944      -0.51092863
H       13.40788500       9.04796700      12.53700300      -0.00292875       0.01984219      -0.00651067      -0.01182486       0.23106105       0.14380099      -0.00889611       0.21121886       0.15031166
O        9.42102800       6.74850100       9.61095800      -0.00334955      -0.01868460      -0.01592584       1.55349731      -0.02396819      -0.23531057       1.55684686      -0.00528359      -0.21938473
H       10.37297900       6.55786500       9.82152900      -0.00665463       0.01008076      -0.00011012      -1.33983029       0.20947499      -0.16871503      -1.33317566       0.19939423      -0.16860491
H        9.49075800       7.19020500       8.74605700       0.00907786       0.00802984       0.01731478      -0.15950097      -0.14188454       0.51290118      -0.16857883      -0.14991438       0.49558640
O       15.87065900       8.63493300      15.29492200       0.00092157      -0.00234384      -0.01023800      -2.87594453      -0.27686829      -1.65304334      -2.87686610      -0.27452445      -1.64280534
H       15.41885400       8.80491500      14.39476000       0.00677242      -0.00090811       0.00403964       1.19905200      -0.40002260       1.93786585       1.19227958      -0.39911449       1.93382621
H       16.75298200       8.92501600      15.24695500      -0.00156971       0.00281951       0.00507150       1.59739319       0.62980601      -0.36704125       1.59896290       0.62698650      -0.37211275
O       12.02946400       6.26597700      12.96618900       0.00042496      -0.01316195       0.00617131       0.62723938       1.76247520       1.17224737       0.62681442       1.77563715       1.16607606
H       11.38895600       5.58488400      13.08330900      -0.00593729       0.00036114      -0.00291352      -0.76136006      -0.84896321       0.11490683      -0.75542277      -0.84932435       0.11782035
H       12.00031500       6.75931900      13.83469900       0.00600828       0.00284245       0.00448303       0.04876324      -0.73443238      -1.27413984       0.04275496      -0.73727483      -1.27862287
O       11.15314100       8.87617000       6.61022500       0.01420078       0.00416189       0.01222315       1.03230700       0.52234196       0.16654147       1.01810622       0.51818007       0.15431832
H       12.04271800       8.45744900       6.54366900       0.00480788       0.00535916       0.00383248      -1.67910666      -0.00661905       0.08095062      -1.68391454      -0.01197821       0.07711814
H       10.41986200       8.27716400       6.47491900      -0.01007713      -0.00667332      -0.01249703       0.40927898      -0.55644940      -0.26202073       0.41935611      -0.54977608      -0.24952370
O       12.84904600      12.31027400      12.00361400       0.00445936      -0.00673723      -0.00349845       3.13132379       1.24941194      -0.19866993       3.12686443       1.25614917      -0.19517148
H       13.28254100      11.78157800      12.66628500       0.00031318       0.00277815       0.00454633       0.45830406      -0.14486023       0.37418594       0.45799088      -0.14763838       0.36963961
H       12.00000000      12.00000000      12.00000000      -0.00716508       0.00906917      -0.00585804      -3.59639299      -1.10434345      -0.15515015      -3.58922791      -1.11341262      -0.14929211
27
Properties=species:S:1:pos:R:3:REF_forces:R:3:DFT_forces:R:3:FOUNDATION_forces:R:3 REF_energy=0.009516514390270459 charge=0 spin=1 external_field="0.0 0.0 0.0" config_type=ORCA_DFT source_file=C_DFTprod_cutcluster_0297.out orca_step=0 DFT_energy=-18719.65845223561 FOUNDATION_energy=-18719.66796875 pbc="F F F"
O        8.34485500      12.06550200      11.91639700       0.00675271      -0.01556451       0.00461406      -0.37531789      -1.10527069       1.02497143      -0.38207060      -1.08970618       1.02035737
H        8.40473500      11.96873500      10.96649200      -0.00773863       0.00745066      -0.00749717      -0.11639873       0.05816417      -0.75528506      -0.10866010       0.05071351      -0.74778789
H        7.91837300      11.23835800      12.24599200      -0.00767314      -0.00058248      -0.00207424       0.51427508       1.11390708      -0.41039026       0.52194822       1.11448956      -0.40831602
O       11.98995100      13.39909100      14.49939000      -0.00337367      -0.01768485       0.00118504      -0.71008460      -0.35943896      -0.38738485      -0.70671093      -0.34175411      -0.38856989
H       11.98478800      12.71475100      13.73918100      -0.00001361      -0.00717097      -0.00242247      -0.98609157       1.54913158       1.67936979      -0.98607796       1.55630255       1.68179226
H       11.09750400      13.64494100      14.90164100       0.00507822       0.02135804      -0.00359452       1.76285567      -1.07600758      -1.45344365       1.75777745      -1.09736562      -1.44984913
O       13.14054200       9.94080100      14.30120900      -0.00066725       0.00057889      -0.00388613       0.52598121      -0.55802070       1.08006010       0.52664846      -0.55859959       1.08394623
H       13.90144200      10.50676900      14.16264000      -0.01242009      -0.00242826       0.00166541      -0.16301207       0.14603795      -0.22204753      -0.15059198       0.14846621      -0.22371294
H       12.54518900      10.03075300      13.57512900       0.01960417      -0.00486811       0.00757530      -0.34026033       0.38290815      -0.77958903      -0.35986450       0.38777626      -0.78716433
O       12.00000000      12.00000000      12.00000000       0.00081392       0.03542206       0.00995961      -0.17245264       0.53516874       0.70495227      -0.17326656       0.49974668       0.69499266
H       12.88371300      11.90166200      11.63344500      -0.01054410      -0.02005388      -0.00203154       0.10252537      -0.38906296      -0.47469649       0.11306947      -0.36900908      -0.47266495
H       11.43777400      11.24208700      11.83258600       0.00377750       0.00073482      -0.00291556       0.15185368      -0.11192501      -0.39662823       0.14807618      -0.11265983      -0.39371267
O       14.99517000      12.92653700       8.35117500       0.01454803      -0.00069088       0.02889732       0.09119030       0.09841068      -0.66322979       0.07664227       0.09910156      -0.69212711
H       14.90249200      12.79474300       9.31562800      -0.00686545       0.01370710      -0.04402970       0.22184267       0.20214513      -0.65714239       0.22870812       0.18843803      -0.61311269
H       15.90338200      13.17868400       8.14543600      -0.00194301      -0.00054049       0.00094848      -0.26314898      -0.05082105       0.22861876      -0.26120597      -0.05028056       0.22767028
O       15.26220400      14.19517100      13.21139700       0.01615398      -0.00465096      -0.01860726       1.63620215      -1.68695773      -0.48529026       1.62004817      -1.68230677      -0.46668300
H       14.33441500      14.39240200      13.32691000      -0.02529905       0.00466848       0.01870072      -0.55561636      -0.57180279       0.58113760      -0.53031731      -0.57647127       0.56243688
H       15.52055000      13.25278800      13.46401100       0.00386401      -0.00203209      -0.00086769      -1.23691849       2.11377997      -0.05103645      -1.24078250       2.11581206      -0.05016876
O        8.74205500      12.93323800       9.12347200       0.00798765       0.00109182       0.01856073      -0.39330101       0.16303408      -0.73326407      -0.40128866       0.16194226      -0.75182480
H        8.32024100      13.37724800       8.36812700      -0.00137873      -0.00089659       0.00095426       0.05561183      -0.51153495       0.32357942       0.05699056      -0.51063836       0.32262516
H        9.21135400      13.65988400       9.54127900      -0.00046020      -0.00333390      -0.01649519       0.39390964       0.28459718       0.61881963       0.39436984       0.28793108       0.63531482
O       14.76397000      12.39438500      10.82571100       0.00200043       0.00632554      -0.00592195      -0.08166071       1.82691389       2.26025737      -0.08366114       1.82058835       2.26617932
H       15.52873200      11.83707000      10.91894700       0.00314620      -0.01432957       0.01121535       0.53657636      -0.63936378      -0.00736441       0.53343016      -0.62503421      -0.01857976
H       15.00189700      13.20118100      11.40767100       0.00099682      -0.00115451       0.00142760      -0.55795128      -1.31877789      -0.99117844      -0.55894810      -1.31762338      -0.99260604
O        9.81710700      14.52587300      11.31535100       0.00235804      -0.00561334      -0.00205317       1.21055218       0.49042316      -0.34922963       1.20819414       0.49603650      -0.34717646
H        9.36226200      13.83700400      11.81943300       0.00469778       0.01591824       0.00566598       0.53950248      -0.11605714       0.20962170       0.53480470      -0.13197538       0.20395572
H       10.80127000      14.51204900      11.46892000      -0.01340287      -0.00566048       0.00102674      -1.79066401      -0.46958066       0.10581242      -1.77726114      -0.46392018       0.10478568
27
Properties=species:S:1:pos:R:3:REF_forces:R:3:DFT_forces:R:3:FOUNDATION_forces:R:3 REF_energy=0.020881070180621464 charge=0 spin=1 external_field="0.0 0.0 0.0" config_type=ORCA_DFT source_file=C_DFTprod_cutcluster_0407.out orca_step=0 DFT_energy=-18720.05333767982 FOUNDATION_energy=-18720.07421875 pbc="F F F"
O       11.70711000      15.32774700      12.19039100      -0.00863819       0.02712691       0.01496045      -2.22991614       0.68690944       1.77188210      -2.22127795       0.65978253       1.75692165
H       11.70616300      16.11973000      12.81884000       0.00567555      -0.00447622       0.00003538       0.11778168      -1.64390579      -1.28171101       0.11210613      -1.63942957      -1.28174639
H       10.82973900      14.84952700      12.42753100      -0.01048747      -0.03690681      -0.00512193       2.06849631       1.05838230      -0.44040291       2.07898378       1.09528911      -0.43528098
O       11.97279200      14.50205400      15.77471900      -0.00660984       0.00049397      -0.01323397      -2.06264679      -0.69807276      -1.09888489      -2.05603695      -0.69856673      -1.08565092
H       11.08435500      14.26953000      16.13270100      -0.00729289      -0.00032409       0.01083176       1.02428351       0.41396410       0.54957627       1.03157640       0.41428819       0.53874451
H       11.68331600      14.25284000      14.85581000       0.01389229      -0.00243210       0.00569069       1.08388245       0.29888434       0.64131093       1.06999016       0.30131644       0.63562024
O       13.73387700       9.53388000      12.23151400      -0.02934691      -0.00025631      -0.00422059       0.38785562      -0.67201252      -0.65803955       0.41720253      -0.67175621      -0.65381896
H       12.96644400      10.10790300      12.24729700       0.01965119       0.00353197       0.00956491      -0.07220949       0.50281248       0.57340464      -0.09186068       0.49928051       0.56383973
H       14.08290600       9.40618600      13.11606300       0.00434486      -0.00146303      -0.00334132      -0.41517802       0.24381922       0.21369597      -0.41952288       0.24528225       0.21703729
O       15.61502300      13.16879600      12.37337100      -0.00974192       0.00757503      -0.01074394       0.10353262      -0.23596368      -0.10433414       0.11327454      -0.24353871      -0.09359020
H       15.21776100      13.70759900      11.64959200       0.01620130      -0.00055761       0.01112183       0.47839908      -1.09443051       0.46942552       0.46219778      -1.09387290       0.45830369
H       15.96499000      12.29149000      12.08253300       0.00155305      -0.00555695       0.00111520      -0.53854907       1.13758468      -0.31181082      -0.54010212       1.14314163      -0.31292602
O       12.00000000      12.00000000      12.00000000      -0.02289469      -0.00404232      -0.00829610      -0.11540516       0.39475698       1.27431050      -0.09251047       0.39879930       1.28260660
H       12.61478900      12.71040800      11.80871300       0.04233227       0.00484714       0.00658032       0.64604495       0.48614499       0.27062061       0.60371268       0.48129785       0.26404029
H       11.93003100      11.56390100      11.16360300      -0.01653468       0.01841142      -0.00291841      -0.46285301      -0.67881510      -1.30504172      -0.44631833      -0.69722652      -1.30212331
O       13.77751800      14.39190500      10.60951400      -0.02450432       0.01341010       0.01594472      -1.55683877       0.20616891      -0.75713193      -1.53233445       0.19275881      -0.77307665
H       13.52390900      14.00246700       9.73542900       0.01101504       0.00005006      -0.01114492       0.26834662       0.80576353       1.19209834       0.25733158       0.80571347       1.20324326
H       13.00029400      14.94605900      10.94828100       0.00972836      -0.00836445      -0.02218926       1.15894155      -1.04003085      -0.51973209       1.14921319      -1.03166640      -0.49754283
O       10.27879400      13.33941200      13.71120500       0.01511086       0.01035156       0.00204117      -2.30249607      -0.67727254       1.26116163      -2.31760693      -0.68762410       1.25912046
H       10.73875100      12.82043200      13.03658500      -0.00754536       0.00094048       0.00824887       0.13876749      -0.76039173      -0.10421803       0.14631285      -0.76133221      -0.11246690
H        9.51549800      12.78451200      14.11254800      -0.00674550       0.00107931      -0.00710149       2.14530786       1.31435405      -1.32433219       2.15205336       1.31327474      -1.31723070
O       16.32926700      10.29941900      11.51778500      -0.00655207      -0.00219689      -0.01038027      -0.73015293      -0.44222556       0.76335323      -0.72360086      -0.44002867       0.77373350
H       15.35530200      10.07961700      11.53160300       0.01963100       0.00164051       0.01289192       1.08550868       0.21584968       0.07435292       1.06587768       0.21420917       0.06146100
H       16.66142800       9.92472200      12.36178000       0.00219569      -0.00378293       0.00204112      -0.23010131       0.35295906      -0.83564983      -0.23229700       0.35674199      -0.83769095
O       11.78743200      10.92631800       9.55388400       0.00249815      -0.02748522      -0.01790801       0.91211367      -1.66367408      -0.53759632       0.90961552      -1.63618886      -0.51968831
H       12.33502200      10.12275200       9.28520100      -0.00793899       0.00883385      -0.00651758      -1.00618006       1.75662347       0.39040209      -0.99824107       1.74778962       0.39691967
H       11.98994000      11.64335000       8.94343900       0.00100337      -0.00044746       0.02204977       0.10326482      -0.26818217      -0.16670926       0.10226145      -0.26773471      -0.18875903
27
Properties=species:S:1:pos:R:3:REF_forces:R:3:DFT_forces:R:3:FOUNDATION_forces:R:3 REF_energy=0.06617673936489155 charge=0 spin=1 external_field="0.0 0.0 0.0" config_type=ORCA_DFT source_file=C_DFTprod_cutcluster_0415.out orca_step=0 DFT_energy=-18719.785385760635 FOUNDATION_energy=-18719.8515625 pbc="F F F"
O        9.24477100      11.00453100      13.21645500       0.02236931      -0.00814003       0.00219959       2.11580841       0.88468283       3.04461569       2.09343910       0.89282286       3.04241610
H        9.46578300      11.00727900      14.22889700      -0.01108834      -0.00728264      -0.00120038      -0.96426686      -0.18638530      -2.96205849      -0.95317852      -0.17910266      -2.96085811
H        8.46063300      10.50784500      13.08323300      -0.01018275       0.00103117       0.01758294      -1.20207752      -0.76026349       0.01558227      -1.19189477      -0.76129466      -0.00200067
O       15.76912900      10.54854700      11.93539200      -0.00074618       0.00126697       0.01565966       0.17645169      -0.76899187      -0.08803622       0.17719787      -0.77025884      -0.10369588
H       15.09751100      11.07774900      12.37986000      -0.00236304      -0.00014382      -0.01174257      -0.25938602      -0.21501664      -0.23639300      -0.25702298      -0.21487282      -0.22465043
H       15.40158800       9.65846600      11.76358700      -0.00238585       0.00082459      -0.00888418       0.11316269       0.94728621       0.20616243       0.11554854       0.94646162       0.21504661
O       11.28343200      11.66918800      11.39958600       0.03589612      -0.02236726       0.02479624       0.73649096       0.26761941       0.68939226       0.70059484       0.28998667       0.66459602
H       10.77099300      11.08326100      11.97267500      -0.02791377       0.01904134       0.00075081      -0.21040162       0.03471313      -0.08957045      -0.18248785       0.01567179      -0.09032126
H       12.00000000      12.00000000      12.00000000      -0.00284556      -0.00813443      -0.03662161      -0.53756336      -0.43564719      -0.82234226      -0.53471780      -0.42751276      -0.78572065
O       12.32879700      11.57307800       8.51108700       0.00050161       0.00081894       0.03332766      -1.33679654       2.17025420       0.02106412      -1.33729815       2.16943526      -0.01226354
H       11.79703800      12.43904800       8.69598300       0.01258958      -0.00042183      -0.00576777       1.55156708      -2.18445975      -0.27756125       1.53897750      -2.18403792      -0.27179348
H       12.15775600      11.02642500       9.28035800       0.00899050      -0.00271231      -0.02384291      -0.08991935       0.06680205       0.25078984      -0.09890985       0.06951436       0.27463275
O       13.48748700      12.04048200      13.13047700       0.00999143      -0.00120153      -0.00476315      -0.27337215      -1.51560213       0.99433658      -0.28336358      -1.51440060       0.99909973
H       13.77664700      12.91017800      13.36871500      -0.00108670       0.00071984       0.01235161       0.35919995       0.93006116       0.23882059       0.36028665       0.92934132       0.22646898
H       13.48386000      11.50828000      13.96602400       0.00629546       0.00271166       0.01228981       0.01973533       0.77782906      -1.02527518       0.01343987       0.77511740      -1.03756499
O       11.35848100      14.09197200       9.71802500       0.00566712       0.00807694      -0.02101439      -0.14489818       0.24830935      -0.27747142      -0.15056530       0.24023241      -0.25645703
H       10.93028500      14.93297800       9.50514400       0.00723611       0.00434116       0.01645220       0.16010389      -0.26454725       0.16482464       0.15286778      -0.26888841       0.14837244
H       11.13318700      13.90644200      10.63818600      -0.01088644       0.00483123      -0.01112918      -0.15579734       0.08410871       0.11758257      -0.14491090       0.07927748       0.12871175
O        8.89247200      11.96388100       9.70870800       0.00620210       0.03478974      -0.01929133       0.88469589       0.55992275       0.20079489       0.87849379       0.52513301       0.22008622
H        9.85308700      12.11198300       9.96512700      -0.03597185      -0.01041523      -0.00362381      -1.55597755      -0.04151571      -0.63096383      -1.52000570      -0.03110048      -0.62734002
H        8.64008400      12.63708100       9.04776000       0.00280349      -0.02922739       0.01737203       0.60906826      -0.54512091       0.43748419       0.60626477      -0.51589352       0.42011216
O        9.18893900      13.88156500      12.05724000      -0.01130885      -0.01499977       0.00959077      -1.43153399       1.82185242      -1.54001984      -1.42022514       1.83685219      -1.54961061
H        9.42878600      13.01628500      12.31614700      -0.00338671       0.03271552      -0.02857883       0.30067053      -1.72475223       0.31198226       0.30405724      -1.75746775       0.34056109
H        8.54433300      13.75079200      11.30429100       0.00009193      -0.00077832       0.01580768       1.15979793      -0.05160251       1.29346507       1.15970600      -0.05082419       1.27765739
O       11.94997600      15.34283800      13.36429100       0.00169659       0.01158648       0.00100314      -1.28550720      -0.36888725       0.99347567      -1.28720379      -0.38047373       0.99247253
H       11.09115300      15.82031100      13.46058700      -0.00030570      -0.01042094      -0.00231546       0.95252694      -0.34855985      -0.41266435       0.95283264      -0.33813891      -0.41034889
H       11.77502500      14.57740300      13.95593900       0.00014005      -0.00650979      -0.00040912       0.30821816       0.61791085      -0.61801683       0.30807811       0.62442064      -0.61760771
27
Properties=species:S:1:pos:R:3:REF_forces:R:3:DFT_forces:R:3:FOUNDATION_forces:R:3 REF_energy=0.017171506908198353 charge=0 spin=1 external_field="0.0 0.0 0.0" config_type=ORCA_DFT source_file=C_DFTprod_cutcluster_0420.out orca_step=0 DFT_energy=-18719.40665661809 FOUNDATION_energy=-18719.423828125 pbc="F F F"
O       12.84216800       8.43562500      14.52032700       0.00289649      -0.00578093       0.00557034      -1.02217680      -1.21211361      -0.69597228      -1.02507329      -1.20633268      -0.70154262
H       12.96286200       9.30232200      14.08945000      -0.00267722       0.01079935      -0.00411885      -0.71006938      -0.60744780      -0.13819336      -0.70739216      -0.61824715      -0.13407451
H       12.12241900       7.89215300      14.06074100      -0.00394852      -0.00381056      -0.00033742       1.58345025       1.64210221       0.76662398       1.58739877       1.64591277       0.76696140
O       11.01074800       9.34396600       8.99409100      -0.01743385      -0.00490796      -0.01286573       0.65194074       0.33437729       0.06907665       0.66937459       0.33928525       0.08194238
H       11.71538400      10.02974900       8.93817300       0.01134846       0.00843809       0.01171500      -0.69270327      -0.64002856       0.06715203      -0.70405173      -0.64846665       0.05543703
H       11.26799100       8.72808700       9.69549600       0.00698037       0.00378036      -0.00053432       0.05652560       0.37690946      -0.19175335       0.04954523       0.37312910      -0.19121903
O       13.72599100       9.31053200      11.10559700       0.01184332      -0.03740866      -0.00908599      -0.09510254      -0.32226760       0.74892744      -0.10694586      -0.28485894       0.75801343
H       14.04031900       8.57366400      11.64625500       0.00335976       0.00702966      -0.01931254      -0.21187990       0.23072418       0.25913580      -0.21523966       0.22369452       0.27844834
H       14.11159200       9.11647200      10.26495300       0.00076244       0.00112443       0.01175830       0.36412207       0.01390489      -1.07856300       0.36335963       0.01278046      -1.09032130
O       12.06419900      11.63082300      11.09224800      -0.04634373      -0.01998601       0.00745229      -1.52827720       1.95370045       0.07089010      -1.48193347       1.97368646       0.06343781
H       12.00000000      12.00000000      12.00000000       0.02511768       0.01055464      -0.02555042       0.55745964      -0.80034462      -0.94754415       0.53234196      -0.81089926      -0.92199373
H       12.68123300      10.92209700      11.07470800      -0.00204005       0.00324568       0.03267332       0.93331299      -1.04974905       0.61199572       0.93535304      -1.05299473       0.57932240
O        9.09123600      11.68746600      10.26905000      -0.00506663      -0.01052909       0.00689521       0.46977318       1.07021565       0.23581090       0.47483981       1.08074474       0.22891569
H        9.86684400      11.15850500      10.51723300       0.00726819       0.00194429      -0.00445414      -0.13148417       0.07944015      -0.20328665      -0.13875236       0.07749586      -0.19883251
H        9.40998400      12.61466200      10.36149300       0.00714208       0.01128245       0.00137951      -0.35328801      -1.08443355      -0.09983409      -0.36043009      -1.09571600      -0.10121360
O        8.95264700       9.63809900      13.43911400      -0.00876675       0.02017686      -0.00744015       1.43892457       1.13740203       1.42966562       1.44769132       1.11722517       1.43710577
H        9.73073900      10.05765600      13.90389800       0.01533630      -0.01487452       0.01068033      -0.71542278      -0.98379511      -1.12410341      -0.73075908      -0.96892059      -1.13478374
H        8.28358400      10.03873500      14.00461000      -0.00208524      -0.00639874      -0.00628591      -0.70191214      -0.24524531      -0.30472213      -0.69982690      -0.23884657      -0.29843622
O       12.70553800      11.92767200       8.17609800      -0.01527165       0.03914712      -0.00196878      -0.08370844       0.69434909      -1.96551410      -0.06843679       0.65520197      -1.96354532
H       12.29300000      12.46719100       8.84176700       0.00958634      -0.02246836       0.00181203      -0.44353878       0.19331756       0.91018956      -0.45312512       0.21578592       0.90837753
H       12.44220200      12.39516700       7.32970700       0.00034373      -0.01955820      -0.00403123       0.52524572      -1.03575850       1.34434242       0.52490199      -1.01620030       1.34837365
O       12.57330100      11.17326500      13.80998600      -0.00812627       0.01927835      -0.00558624      -0.62066687      -0.02099753      -0.18499315      -0.61254060      -0.04027588      -0.17940691
H       13.31747400      11.43758600      14.33450500       0.00562703       0.00883179       0.00350853       0.82241451       0.37358656       0.38658010       0.81678748       0.36475477       0.38307157
H       11.81733200      11.39561100      14.36271900      -0.00572640      -0.00901706       0.00436625      -0.07330493      -0.06690222       0.07414831      -0.06757853      -0.05788516       0.06978206
O       15.03244200      13.42774900      10.17259400       0.00055996       0.00189546      -0.00992678      -0.18601989      -3.67872044       0.76943816      -0.18657985      -3.68061590       0.77936494
H       14.50631000      12.76003200       9.66357800       0.00628363       0.02041963       0.01056362       0.67945026       0.51114008       0.77584196       0.67316663       0.49072045       0.76527834
H       14.83839900      14.18298200       9.70889300       0.00303064      -0.01320820       0.00312395      -0.51306434       3.13663430      -1.58533924      -0.51609498       3.14984250      -1.58846319
27
Properties=species:S:1:pos:R:3:REF_forces:R:3:DFT_forces:R:3:FOUNDATION_forces:R:3 REF_energy=-0.013782515914499527 charge=0 spin=1 external_field="0.0 0.0 0.0" config_type=ORCA_DFT source_file=C_DFTprod_cutcluster_0423.out orca_step=0 DFT_energy=-18719.468860640914 FOUNDATION_energy=-18719.455078125 pbc="F F F"
O       12.00000000      12.00000000      12.00000000      -0.02181182      -0.02794873      -0.04566556      -0.58129243      -0.50586417       0.36321998      -0.55948061      -0.47791544       0.40888554
H       12.71436600      12.62320400      12.02551000       0.01637055       0.01063554       0.02902576       0.78025891       0.55824094       0.18058607       0.76388836       0.54760540       0.15156031
H       12.37209100      11.20475800      12.40755900       0.00919075       0.01992700       0.00149565      -0.02536949      -0.11843638      -0.34828598      -0.03456024      -0.13836338      -0.34978163
O       11.52292800       9.11591700      10.15813500      -0.00730378      -0.00291413       0.00120343      -1.71438009      -0.39651155       0.42357231      -1.70707631      -0.39359742       0.42236888
H       12.41868300       9.16547200      10.45671800       0.01992085       0.00663857      -0.00315016       0.79250487      -0.14440237       0.44640232       0.77258402      -0.15104094       0.44955248
H       10.96671800       8.77429500      10.92234700       0.00178513       0.00214205      -0.00165021       1.17249486       0.73549137      -1.14714229       1.17070973       0.73334932      -1.14549208
O       15.32883300      10.39249600      11.52845700       0.03386431       0.00274615       0.00776431      -0.34964419       0.48819946      -0.06228986      -0.38350850       0.48545331      -0.07005417
H       14.81857100      11.24453800      11.57310100      -0.02221841       0.02174519       0.00255034       0.68295437      -1.53310944       0.24355496       0.70517278      -1.55485463       0.24100462
H       14.86819300       9.66391000      11.98483300      -0.03457655      -0.02371565       0.01387470      -0.01121736       0.76779070      -0.39511390       0.02335919       0.79150635      -0.40898860
O       10.48616700       8.77569400      12.67919100      -0.03107881      -0.00935677      -0.00517018       0.55987555       0.57519701       1.35924284       0.59095436       0.58455378       1.36441302
H       11.16284300       9.28573400      13.20542900       0.01287533       0.01458279       0.00750573      -1.18173705      -0.69639625      -0.79302536      -1.19461238      -0.71097904      -0.80053109
H        9.68160900       8.74261400      13.22532200       0.00645643      -0.00330386       0.00896869       0.48414596       0.09367784      -0.27651065       0.47768953       0.09698170      -0.28547934
O        9.39578400      14.00413700      10.65553100       0.00139611      -0.00000060      -0.00280467       2.53218024      -0.92539090      -0.77270732       2.53078413      -0.92539030      -0.76990265
H       10.12661600      13.30643200      10.71715200      -0.00097352      -0.02007474      -0.00308060      -1.58051544       1.32350682      -0.28506517      -1.57954192       1.34358156      -0.28198457
H        8.76217100      13.75475700      11.29773800      -0.00373711       0.01328883       0.00724455      -0.94050642      -0.45142003       1.00774082      -0.93676931      -0.46470886       1.00049627
O       14.91012900      12.99835400      12.28346400      -0.00839403      -0.02079871      -0.01607412      -1.30392149      -0.65351179      -0.42267474      -1.29552746      -0.63271308      -0.40660062
H       15.50014900      13.18417500      13.00277500       0.00482331       0.00252996      -0.00421531       0.53801505       0.56188486       0.09875186       0.53319174       0.55935490       0.10296717
H       14.85812800      13.68554200      11.62003000      -0.00401103       0.00645554      -0.00249051       0.58292497       0.49969846       0.22475110       0.58693600       0.49324292       0.22724161
O       12.11751700      11.38789800      14.96651500       0.01312371      -0.00260682      -0.00428636       0.12027832      -0.94474931       0.32045116       0.10715461      -0.94214249       0.32473752
H       12.58364000      11.84102700      15.66656600      -0.01205162      -0.00194413       0.00790892       0.05490591       0.26932626       0.19973997       0.06695753       0.27127039       0.19183105
H       11.98571300      12.00859200      14.25987300       0.00266772       0.00628946       0.00986186      -0.21335556       0.69113115      -0.55411026      -0.21602328       0.68484169      -0.56397212
O       11.86165300      12.52484600       9.01182300      -0.00307636       0.00696909      -0.02914461       1.21495910      -0.54982043       2.45641080       1.21803546      -0.55678952       2.48555541
H       11.84945200      11.59518400       9.37104600       0.00150659      -0.01314592       0.00543901      -0.32569627       0.91004193      -0.76994256      -0.32720286       0.92318785      -0.77538157
H       12.35933400      12.94354200       9.78257900       0.01302778       0.01086685       0.03827723      -1.00869203      -0.49666873      -1.73541383      -1.02171981      -0.50753558      -1.77369106
O       13.57989100       9.22147500      13.30785100       0.02829641      -0.00022288      -0.02437651       0.81760490       1.90651731       0.16269700       0.78930849       1.90674019       0.18707351
H       13.10765500       8.68574100      13.92313300      -0.00923015      -0.00898582       0.00923615      -0.45288037      -0.77286518       0.77612077      -0.44365022      -0.76387936       0.76688462
H       13.93299900       9.98042700      13.85234800      -0.00684122       0.01020156      -0.00824722      -0.64389483      -1.19155754      -0.70096006      -0.63705361      -1.20175910      -0.69271284
27
Properties=species:S:1:pos:R:3:REF_forces:R:3:DFT_forces:R:3:FOUNDATION_forces:R:3 REF_energy=-0.017229501161637018 charge=0 spin=1 external_field="0.0 0.0 0.0" config_type=ORCA_DFT source_file=C_DFTprod_cutcluster_0427.out orca_step=0 DFT_energy=-18720.09144825116 FOUNDATION_energy=-18720.07421875 pbc="F F F"
O       13.55334000      15.12516500      11.37505700       0.00416357       0.00832377      -0.01694391       0.66151810      -0.51242002      -1.47229014       0.65735453      -0.52074379      -1.45534623
H       13.50954900      15.35750600      10.39748300      -0.00687809      -0.00198109      -0.00552369       0.16974666      -0.61919851       1.95083927       0.17662475      -0.61721742       1.95636296
H       14.17746500      14.33681500      11.43415100       0.00721151      -0.01169002       0.01716735      -1.05232972       1.40969169      -0.44171263      -1.05954123       1.42138171      -0.45887998
O       12.82342400      11.32663700      10.29946700      -0.02891149      -0.00472993      -0.02103291      -2.75945272      -3.13366694       0.71782609      -2.73054123      -3.12893701       0.73885900
H       13.58424100      11.84307000      10.41767000       0.01423501      -0.00647014       0.01122326       2.16079377       1.20799393       0.38269377       2.14655876       1.21446407       0.37147051
H       12.83733400      10.50016200      10.88701100       0.02594739      -0.00791388      -0.00394215       0.32918793       1.96095950      -1.10887327       0.30324054       1.96887338      -1.10493112
O       14.98401500      12.85237900      10.82257500      -0.00776768      -0.01064889      -0.00766789       0.03372203      -1.97695438       1.88667096       0.04148971      -1.96630549       1.89433885
H       15.75410900      12.89214100      10.26013200       0.00211238       0.00625562       0.01007816       0.40916564      -0.04922814      -0.15606459       0.40705326      -0.05548376      -0.16614275
H       15.17907500      12.13616300      11.55132500      -0.00847150       0.00914449      -0.00517782       0.27826275       1.95771009      -1.41579112       0.28673425       1.94856560      -1.41061330
O       12.09526600      10.04250500      14.87097000       0.00943080      -0.00251305       0.00313288      -0.47193250      -0.71383512      -0.07189669      -0.48136330      -0.71132207      -0.07502957
H       12.94538300      10.34623300      15.16484000      -0.00260788       0.00128449      -0.00400667       0.49981231       0.31857590       0.16566113       0.50242019       0.31729141       0.16966780
H       11.86899400      10.59847400      14.10775800      -0.00777563      -0.00377180       0.00044288       0.10774754       0.25285382       0.00792347       0.11552317       0.25662562       0.00748059
O       15.88475200      11.27633200      13.07418300       0.01087793      -0.00374063       0.01301747       0.54493286      -0.53089484      -0.40451164       0.53405493      -0.52715421      -0.41752911
H       15.09791400      10.71578400      12.97903200      -0.00377623      -0.00135278      -0.00163709      -0.22381146      -0.08549165       0.27375967      -0.22003523      -0.08413887       0.27539676
H       16.59728300      10.61931600      12.93620000      -0.00087166      -0.00025381      -0.00529674      -0.32034549       0.69954549       0.16459401      -0.31947383       0.69979930       0.16989075
O       12.51288900      14.04835300      15.03665000      -0.00776854       0.00052249       0.00091992       0.14748600      -0.23593329       0.10406921       0.15525454      -0.23645578       0.10314929
H       11.88496100      14.77028700      14.87946800       0.00594271      -0.00314809      -0.00755934       0.32678569      -0.27417881       0.62354203       0.32084298      -0.27103072       0.63110137
H       12.64355800      13.87113500      15.99002200      -0.00121465      -0.00776650      -0.00132407      -0.50964519       0.50780325      -0.87450923      -0.50843054       0.51556975      -0.87318516
O       12.28099400      11.18898100       7.61138100      -0.00246702       0.00562847       0.00095957      -0.78709768       0.83614374       0.74038994      -0.78463066       0.83051527       0.73943037
H       12.40750200      11.22613400       8.59653100       0.00433449       0.00925085       0.00747514      -0.00132746      -0.15186083      -0.92179048      -0.00566195      -0.16111168      -0.92926562
H       11.54847800      11.83071300       7.47611400      -0.00229895      -0.00512583      -0.00475758       0.75120467      -0.70863969      -0.03498140       0.75350362      -0.70351386      -0.03022382
O       13.98833300       9.54832500      12.24734500      -0.01727925       0.00967889      -0.00381006      -0.43809081      -1.59339101      -0.01822105      -0.42081156      -1.60306990      -0.01441099
H       13.64246300       8.74460400      12.70513500       0.00274321      -0.00815373       0.01969187       0.07003747       1.05907316      -0.04750808       0.06729426       1.06722689      -0.06719995
H       14.39876900       9.16038100      11.46188600       0.00794531       0.00085668      -0.01198804       0.14425186       0.15049506      -0.04016063       0.13630655       0.14963838      -0.02817259
O       11.76875000      11.92329900      12.92438100       0.02477801       0.01957435      -0.00186750       0.00371386       0.63624853       0.44982636      -0.02106415       0.61667418       0.45169386
H       12.00000000      12.00000000      12.00000000      -0.01146420       0.01646529       0.01523116       0.00275159      -0.06702794      -0.68292341       0.01421579      -0.08349323      -0.69815457
H       11.99984800      12.79036200      13.30097500      -0.01016940      -0.00772544       0.00319576      -0.07708769      -0.34437307       0.22343850      -0.06691829      -0.33664763       0.22024274
27
Properties=species:S:1:pos:R:3:REF_forces:R:3:DFT_forces:R:3:FOUNDATION_forces:R:3 REF_energy=0.007134631927328883 charge=0 spin=1 external_field="0.0 0.0 0.0" config_type=ORCA_DFT source_file=C_DFTprod_cutcluster_0433.out orca_step=0 DFT_energy=-18720.219427868073 FOUNDATION_energy=-18720.2265625 pbc="F F F"
O       15.01866200      14.49797300      10.55858700       0.00203933       0.00113097       0.01405704      -0.46350859      -1.15220567       0.61137938      -0.46554792      -1.15333664       0.59732234
H       14.13140500      14.89858500      10.49461400      -0.01764896      -0.00545478      -0.01120127       0.35222105      -0.10316645      -0.32694937       0.36987001      -0.09771167      -0.31574810
H       14.85146400      13.58630900      10.92042100      -0.00636795      -0.01454557       0.01244014       0.22321245       1.37079178      -0.43904454       0.22958040       1.38533735      -0.45148468
O        9.81130600      14.00410000      13.16975400       0.01230991       0.01972219       0.00894721       0.43474272       1.32174572       0.11541287       0.42243281       1.30202353       0.10646566
H        9.70727400      14.91521200      13.52481800      -0.00451144      -0.01358379       0.00937780      -0.10390363      -1.11986042      -0.16781700      -0.09939219      -1.10627663      -0.17719480
H        9.26499600      13.40252100      13.66795600      -0.01300428       0.00585880       0.00506066      -0.30972601      -0.19352011       0.45425652      -0.29672173      -0.19937891       0.44919586
O        9.73269600      14.05504100      10.44876300      -0.00390880       0.00562251      -0.01673576      -0.52754896      -0.69229668       0.92437408      -0.52364016      -0.69791919       0.94110984
H        9.64453800      14.07831900      11.45441600      -0.00176150      -0.00187614      -0.00451063       0.02428567      -0.40570309      -1.77869295       0.02604717      -0.40382695      -1.77418232
H        9.37518300      13.18235500      10.14056400      -0.00873902       0.00421653       0.00342719       0.67019007       1.09408686       0.50023140       0.67892909       1.08987033       0.49680421
O       10.77820200      11.40553700       9.46659900       0.01576112      -0.01091966       0.00227598       0.27196057       1.42840830       0.34438685       0.25619945       1.43932796       0.34211087
H       10.72873400      10.48952900       9.65712200      -0.01350424      -0.00784648      -0.00984068      -0.17900202      -1.44560111       0.08956325      -0.16549778      -1.43775463       0.09940393
H       11.20978100      11.76019600      10.27699200       0.00630093       0.00996641       0.00569989      -0.15550938       0.01428433      -0.39429731      -0.16181031       0.00431792      -0.39999720
O       12.00000000      12.00000000      12.00000000       0.01092499      -0.03027722      -0.00535316       0.38178288       0.41231010       0.27350282       0.37085789       0.44258732       0.27885598
H       11.93638000      12.91665900      12.33780300       0.00042982       0.00901398      -0.01684890      -0.24657226      -0.38999108      -0.14667214      -0.24700208      -0.39900506      -0.12982324
H       12.97784000      11.87340800      12.00675100       0.00613127       0.01844093       0.00985478      -0.64778944      -0.05425028      -0.04607649      -0.65392071      -0.07269121      -0.05593127
O       10.68644900      10.86984000      14.51425400       0.02049453      -0.01517088      -0.00596738       0.40591855      -0.89822061      -0.73395169       0.38542402      -0.88304973      -0.72798431
H       10.87673300       9.99179200      14.92194000      -0.01818178       0.00493229       0.00843053      -0.20220406       1.05391121      -0.75726743      -0.18402228       1.04897892      -0.76569796
H       10.96367100      10.83291900      13.55440400       0.00405582       0.00850836       0.00777301      -0.14121168       0.06289803       1.41982981      -0.14526750       0.05438967       1.41205680
O       12.94476700      14.60976600      13.17870500      -0.01297073       0.01847481      -0.00054494       0.32392298       1.82806539      -0.84811125       0.33689371       1.80959058      -0.84756631
H       13.12573900      15.54446100      12.80807500       0.03152202      -0.00438592       0.01336363      -0.38922514      -2.21140620       1.23415604      -0.42074716      -2.20702028       1.22079241
H       12.65021500      14.67288200      14.10031700      -0.01901784      -0.00522313      -0.00395397       0.11165459       0.34934857      -0.44584686       0.13067243       0.35457170      -0.44189289
O       14.68449100      11.92311900      12.03204100      -0.00214773       0.00692785      -0.01319538      -0.38249847       0.61342073       0.14479755      -0.38035074       0.60649288       0.15799293
H       15.12447200      12.04072000      12.87340100       0.00151162      -0.00924371      -0.00420113       0.18559294       0.05465564       0.24069106       0.18408132       0.06389935       0.24489219
H       15.11492700      11.21981500      11.57361500       0.00927791       0.00106340      -0.00229796       0.60267588      -0.80363239      -0.43724184       0.59339797      -0.80469579      -0.43494388
O       12.42632400      15.71566800      10.04930000      -0.02150750       0.00189430      -0.01078171      -0.20821607       0.35569919      -1.96887690      -0.18670857       0.35380489      -1.95809519
H       11.98439100      15.17681900      10.69432200       0.01612947       0.00002816      -0.00481627      -0.85484728      -0.61944220       0.15235099      -0.87097675      -0.61947036       0.15716726
H       11.95575400      15.54983100       9.17266500       0.00638324       0.00272616       0.00954120       0.82360262       0.12967051       1.98591308       0.81721938       0.12694435       1.97637188
27
Properties=species:S:1:pos:R:3:REF_forces:R:3:DFT_forces:R:3:FOUNDATION_forces:R:3 REF_energy=-0.007340614618442487 charge=0 spin=1 external_field="0.0 0.0 0.0" config_type=ORCA_DFT source_file=C_DFTprod_cutcluster_0445.out orca_step=0 DFT_energy=-18720.45851248962 FOUNDATION_energy=-18720.451171875 pbc="F F F"
O        8.32850000      12.61738600      10.19217200      -0.01478661       0.00664405      -0.00910041      -0.80266453       0.79021041       0.01632717      -0.78787792       0.78356636       0.02542758
H        9.13721600      12.09150500      10.32298500       0.03192209      -0.01384663       0.01291454      -0.49117304      -0.43158382       0.54100931      -0.52309513      -0.41773719       0.52809477
H        7.60367000      12.44695400      10.83412300      -0.02189750      -0.00343138       0.00177225       1.31573885      -0.23560573      -0.51732538       1.33763635      -0.23217435      -0.51909763
O       10.53669300      10.99967000      10.70594800      -0.00546463       0.02815942      -0.00136866       0.99284498       0.13229350      -0.82599868       0.99830961       0.10413408      -0.82463002
H       10.27752600      10.11694500      10.96050700      -0.01194983      -0.01253676      -0.00420531      -0.16447086      -0.37309137       0.05809434      -0.15252103      -0.36055461       0.06229965
H       11.10607000      10.89810800       9.88810400      -0.00287779      -0.01770231       0.00441448      -0.44162865       0.40435383       0.58228050      -0.43875086       0.42205614       0.57786602
O       12.07907700      11.61957300       8.30518400       0.01200276       0.00107622      -0.00436253       0.88641035       0.39061087       0.03178866       0.87440759       0.38953465       0.03615119
H       11.72389000      12.54701600       8.33635600      -0.01879238       0.01967282       0.00182447       0.48546262      -0.78497421       0.06292791       0.50425500      -0.80464703       0.06110344
H       13.08413400      11.67373300       8.26422100       0.01236802      -0.00895315       0.00168334      -1.88203115       0.27040556       0.24156760      -1.89439917       0.27935871       0.23988426
O       14.68794200      12.26452500       8.92549000      -0.00585174       0.00347618       0.00172259       2.45978594       1.27034489      -1.05380569       2.46563768       1.26686871      -1.05552828
H       14.71403500      12.55604900       9.83938600       0.00708539       0.00308862       0.00331800      -0.32272988       0.00741594       0.34177091      -0.32981527       0.00432732       0.33845291
H       15.48036700      12.76499900       8.52327700      -0.00291100      -0.00340794       0.00154270      -1.95183506      -1.25359379       0.75705768      -1.94892406      -1.25018585       0.75551498
O       10.82664100      14.17501600       8.91524000      -0.00207991      -0.01043960       0.00933028      -0.03068627       0.54472033       1.45542098      -0.02860636       0.55515993       1.44609070
H       11.31468000      14.54948200       9.71371700      -0.00740857      -0.01070898      -0.00205438      -0.70292140      -0.42889141      -1.31953518      -0.69551283      -0.41818243      -1.31748080
H        9.87766700      14.16110000       9.17139800       0.01386840       0.01212449      -0.00812234       0.80457116      -0.13402324      -0.17209207       0.79070276      -0.14614773      -0.16396973
O       12.51062200      12.78725700      12.18114400       0.00471970       0.01345736      -0.03066201       0.61260631       0.52542734       1.46818702       0.60788661       0.51196998       1.49884903
H       12.73750700      12.81897700      13.17174700      -0.00115546       0.00068556      -0.01276874      -0.37080195      -0.37250115      -1.89399146      -0.36964649      -0.37318671      -1.88122272
H       12.00000000      12.00000000      12.00000000      -0.00263608       0.00841782       0.01801494      -0.47502369      -0.32345488      -0.19695145      -0.47238761      -0.33187270      -0.21496639
O       13.44911700      12.83302400      14.61963200      -0.01654833       0.00963453      -0.01609008       0.65571738      -0.97944131      -0.79346810       0.67226571      -0.98907584      -0.77737802
H       13.16239100      13.45710200      15.25007300       0.00590315      -0.00876364       0.01271006      -0.45237551       1.01278713       1.29429718      -0.45827866       1.02155077       1.28158712
H       13.70128700      12.02599500      15.07680100       0.01246889      -0.00287128       0.00980815      -0.03185648       0.05665894       0.09510033      -0.04432537       0.05953022       0.08529218
O       12.65762600      15.22984000      11.03543200       0.00365927       0.00276375       0.01439702       0.07084238       1.87879110      -1.06118465       0.06718311       1.87602735      -1.07558167
H       12.55603900      14.39218200      11.45232000       0.00534325      -0.01329528       0.00280591      -0.15729136      -1.61158692       1.06041666      -0.16263461      -1.59829164       1.05761075
H       12.40895000      15.92375900      11.65739000      -0.00141084       0.00311665      -0.00908203       0.01094580      -0.31371559      -0.09877871       0.01235664      -0.31683224      -0.08969668
O        8.57677800      12.96632800      13.20513300       0.00106817       0.00470955       0.00733374       0.33091777       0.20000479       0.00825982       0.32984960       0.19529524       0.00092608
H        9.08229700      13.32155200      12.43085000       0.00962595      -0.00575681      -0.00845523      -0.28386735      -0.30724515       1.38616543      -0.29349330      -0.30148834       1.39462066
H        8.98464400      13.16305000      14.07856200      -0.00426359      -0.00531349       0.00268001      -0.06448636       0.06568403      -1.46754008      -0.06022277       0.07099752      -1.47022009
27
Properties=species:S:1:pos:R:3:REF_forces:R:3:DFT_forces:R:3:FOUNDATION_forces:R:3 REF_energy=0.004872477158642141 charge=0 spin=1 external_field="0.0 0.0 0.0" config_type=ORCA_DFT source_file=C_DFTprod_cutcluster_0450.out orca_step=0 DFT_energy=-18719.89747127284 FOUNDATION_energy=-18719.90234375 pbc="F F F"
O        9.51351200      12.55083400      15.22047000       0.01236284       0.00432068       0.01255423       0.38435763       2.22442061      -1.03530902       0.37199479       2.22009993      -1.04786325
H       10.21015600      12.53262000      14.53786000       0.00111811       0.00027951      -0.01314208      -0.20751653      -0.18136332       0.50676581      -0.20863464      -0.18164283       0.51990789
H        9.38015200      11.71047200      15.58239100      -0.00147110      -0.00548249      -0.00725616      -0.09826351      -2.04896312       0.47899105      -0.09679241      -2.04348063       0.48624721
O       15.12106400      13.79729700      12.39910300       0.01361504       0.00109543      -0.01620960       1.23710242       0.93567629      -0.10755563       1.22348738       0.93458086      -0.09134603
H       15.87095200      14.37313200      12.66709400       0.00749466       0.00682903       0.01421312      -0.70466235      -0.47831794      -0.56759133      -0.71215701      -0.48514697      -0.58180445
H       14.74531000      13.54269200      13.23826800      -0.01072195      -0.00749831       0.00430516      -0.48744973      -0.52034555       0.58333985      -0.47672778      -0.51284724       0.57903469
O        9.17186500       9.71878000      11.62038300       0.00915632       0.00654688      -0.00110479       0.76765618      -0.40836269      -0.97197564       0.75849986      -0.41490957      -0.97087085
H        9.54352600      10.52652700      11.95347600       0.00199491      -0.00549268       0.00142640      -0.36918273       1.23785401       1.27513141      -0.37117764       1.24334669       1.27370501
H        9.84958500       9.67863000      10.92673000      -0.00535939      -0.00569354       0.00193128      -0.46261657      -0.91202991      -0.28055921      -0.45725718      -0.90633637      -0.28249049
O       13.64231900       9.34160200      12.33614500      -0.01096692      -0.00413926      -0.02283315       1.94411430      -0.23384889       0.91130264       1.95508122      -0.22970963       0.93413579
H       14.33903200       9.60710800      13.02586800       0.00748850       0.00401485      -0.00868353      -1.34619259      -0.90677488      -1.82831987      -1.35368109      -0.91078973      -1.81963634
H       14.02650300       8.65069600      11.74096900       0.00899852      -0.00551263       0.02557915      -0.31018531       0.97148677       0.96164459      -0.31918383       0.97699940       0.93606544
O       11.47623800      14.10330500      13.79992200       0.03700965      -0.01123331       0.02179408       0.52922105       0.40510495       0.01020399       0.49221140       0.41633826      -0.01159009
H       11.76653900      14.74153900      13.12863400      -0.01915844       0.00055652      -0.01491903      -0.38029899      -0.36284984       0.11003222      -0.36114055      -0.36340636       0.12495125
H       12.31417100      13.67429300      14.06899500      -0.02159230      -0.00219330       0.00237330      -0.67810516       0.17546407      -0.14395947      -0.65651286       0.17765737      -0.14633277
O       12.58134200      13.69342900      11.24741000      -0.01574004       0.02718892      -0.00148817      -0.18159302      -0.04230946      -0.27591719      -0.16585298      -0.06949838      -0.27442902
H       12.43807600      13.70251200      10.29583000       0.01561480      -0.00350784      -0.00692152       0.09828187       0.07199408       0.00202552       0.08266707       0.07550192       0.00894704
H       13.51988600      13.88607300      11.39726600      -0.01951747      -0.01002413      -0.00253895       0.14944091      -0.04918428      -0.04031655       0.16895838      -0.03916015      -0.03777760
O       13.68583500      12.77084900      14.63584800      -0.00568486      -0.00811191       0.00916353      -0.27852140      -1.96323605      -0.11333799      -0.27283654      -1.95512414      -0.12250152
H       13.37447300      11.85639200      14.84491000      -0.01131286       0.01187930      -0.01606912      -0.03315787       0.80540070      -0.95336158      -0.02184501       0.79352140      -0.93729246
H       13.97467600      13.01145700      15.49634000       0.00181195       0.00169571      -0.00938063       0.58533564       0.99481054       1.30950732       0.58352369       0.99311483       1.31888795
O        9.01135600      12.77893100      12.10473900      -0.00104299      -0.00078449      -0.00690505      -1.87390986      -0.46221316      -0.26055464      -1.87286687      -0.46142867      -0.25364959
H        8.87597900      12.82452400      13.04979300       0.00976038       0.01226226      -0.01322100      -0.22934319       0.06011872       0.50680545      -0.23910357       0.04785646       0.52002645
H        9.91275100      12.96924900      12.00153500       0.00672309      -0.00310082       0.01994811       2.05190055       0.53627210      -0.16085008       2.04517746       0.53937292      -0.18079819
O       11.67219200      11.25417800      12.56248000      -0.03115087       0.01857478       0.01049559       0.91664226       0.19373300      -0.44023044       0.94779313       0.17515822      -0.45072603
H       12.00000000      12.00000000      12.00000000       0.01287829      -0.00999224       0.02447904      -0.23070408      -0.51252580       0.66583658      -0.24358237      -0.50253356       0.64135754
H       12.36565700      10.55898200      12.47029700       0.00769222      -0.01247741      -0.00759075      -0.79234993       0.46998911      -0.14174786      -0.80004215       0.48246652      -0.13415711
27
Properties=species:S:1:pos:R:3:REF_forces:R:3:DFT_forces:R:3:FOUNDATION_forces:R:3 REF_energy=-0.00958820783853298 charge=0 spin=1 external_field="0.0 0.0 0.0" config_type=ORCA_DFT source_file=C_DFTprod_cutcluster_0455.out orca_step=0 DFT_energy=-18720.38849445784 FOUNDATION_energy=-18720.37890625 pbc="F F F"
O        9.87203900       8.45455300      15.94004900      -0.00743793       0.00232569       0.00638420       0.18045700      -0.30789816       0.24582530       0.18789493      -0.31022385       0.23944110
H       10.42826900       9.24361800      15.91684600      -0.00038381      -0.00283258       0.00362257       0.11466339       0.22911565      -0.08217946       0.11504720       0.23194823      -0.08580203
H        9.24836900       8.59745800      15.23026400       0.00703331      -0.00464905      -0.00233407      -0.23331339       0.10272386      -0.22839337      -0.24034670       0.10737291      -0.22605930
O        9.43379800      10.50194300      11.18853100       0.02020867       0.01072550       0.02090301       0.89738346       0.38774789       0.38778229       0.87717479       0.37702239       0.36687928
H       10.35404100      10.65460900      11.52612200      -0.02997101       0.01220882      -0.00421288      -1.27853406      -0.12566520      -0.14869195      -1.24856305      -0.13787402      -0.14447907
H        8.78355800      10.97533500      11.73688700       0.00536440      -0.01467539      -0.00851759       0.43239639      -0.13945613       0.01227743       0.42703199      -0.12478074       0.02079502
O       14.33795600       9.54594200      10.41056600       0.00418168       0.00810220       0.00184592      -0.36415118      -1.21949957      -1.00679687      -0.36833286      -1.22760177      -1.00864279
H       14.15061100       9.98384200       9.55246500       0.00317862      -0.00833038      -0.00346703       0.16312211      -0.40684918       0.74753087       0.15994349      -0.39851880       0.75099790
H       14.19191800       8.57309700      10.23123700      -0.00273730       0.00069077      -0.00500245       0.26004304       1.60960789       0.24817087       0.26278034       1.60891712       0.25317332
O        6.92969600      11.77940700      12.72570000      -0.00945173       0.00439444      -0.00905746      -1.01637541       1.32145086      -2.73688882      -1.00692368       1.31705642      -2.72783136
H        7.15543100      12.40578700      13.41374900       0.00333281      -0.00428390      -0.00478353       0.01184764       0.30228436       0.14555849       0.00851483       0.30656826       0.15034202
H        6.55011800      12.35411800      11.94261100       0.00302063       0.00007141       0.00975721       1.15480886      -1.65086901       2.50480812       1.15178823      -1.65094042       2.49505091
O       10.81837600       7.95135500      13.10135000       0.00479450      -0.00429039      -0.01102630      -0.72716747      -0.93215208      -0.14751119      -0.73196197      -0.92786169      -0.13648489
H       10.04535200       7.48711600      12.68673200      -0.00465764       0.00859870      -0.00345274       1.14307116       0.62514825       0.65977541       1.14772880       0.61654955       0.66322815
H       10.99824800       7.52163800      13.96378600      -0.00098354       0.00153074       0.00609214      -0.41022700       0.34594864      -0.57915538      -0.40924346       0.34441790      -0.58524752
O        8.62472100       8.74256800       9.25979900      -0.00319410      -0.00251039      -0.00504014      -0.94567043       0.24882845      -0.19834103      -0.94247633       0.25133884      -0.19330089
H        7.69077200       9.04322000       9.21152200      -0.00196369      -0.00350215       0.00077867       0.98978619      -0.36070122       0.02181761       0.99174988      -0.35719907       0.02103894
H        9.04518700       9.39805100       9.84375800       0.00337916      -0.00239023       0.00047994      -0.15582167      -0.08002225       0.06705967      -0.15920083      -0.07763202       0.06657973
O       12.02657800      12.96662100      12.11021600       0.02029400       0.00459331      -0.00413507      -0.09674244      -0.47848660       0.01298315      -0.11703644      -0.48307991       0.01711822
H       11.93545700      13.26958100      11.20939100      -0.00899962      -0.01719638       0.01068173      -0.05650663       0.42938850      -0.31375586      -0.04750701       0.44658488      -0.32443759
H       12.00000000      12.00000000      12.00000000      -0.00796633       0.01331921      -0.00281048       0.14807432       0.12684502       0.40310669       0.15604065       0.11352581       0.40591717
O       11.49582600      10.80746400      15.20820800      -0.00491031       0.01003510       0.00318214       0.31471575      -0.44214704      -0.18996361       0.31962606      -0.45218214      -0.19314575
H       12.02069200      10.55992100      14.43104300       0.00003023      -0.00927303      -0.00510842      -0.03806390      -0.14698622       0.02866338      -0.03809413      -0.13771319       0.03377180
H       11.21773500      11.68937400      14.97995900       0.00798837       0.00090996      -0.00056513      -0.25618263       0.58357135       0.05121103      -0.26417100       0.58266139       0.05177616
O       12.28346900      10.15360800      12.24992200      -0.00442458       0.00064832      -0.00533005       1.20308899       0.54492438      -0.57750216       1.20751357       0.54427606      -0.57217211
H       11.91441400       9.27678800      12.37537500      -0.01087187      -0.01446772       0.01070063      -0.42911242      -0.62240720       0.19169586      -0.41824055      -0.60793948       0.18099523
H       13.12952900      10.03168200      11.73202000       0.01514707       0.01024712       0.00041518      -1.00558974       0.05555470       0.48091352      -1.02073681       0.04530758       0.48049834
27
Properties=species:S:1:pos:R:3:REF_forces:R:3:DFT_forces:R:3:FOUNDATION_forces:R:3 REF_energy=0.0335994307679357 charge=0 spin=1 external_field="0.0 0.0 0.0" config_type=ORCA_DFT source_file=C_DFTprod_cutcluster_0457.out orca_step=0 DFT_energy=-18719.034759944232 FOUNDATION_energy=-18719.068359375 pbc="F F F"
O        9.82629000      12.77080500       9.35874500      -0.04202069      -0.01908080      -0.00488622      -1.19545497      -3.13560812       1.66408401      -1.15343428      -3.11652732       1.66897023
H       10.23172700      12.71024600       8.50912700       0.00675648      -0.02018173      -0.00341506       0.45952862      -0.19644603      -0.98057969       0.45277214      -0.17626430      -0.97716463
H        9.68645800      11.79220800       9.71051200       0.02161544       0.02146481      -0.01178938       0.40419113       2.95829676      -1.06672960       0.38257569       2.93683195      -1.05494022
O        9.50086700      10.31056400      11.04110900       0.00053734       0.00449296      -0.01514082       0.07729714       0.45356958      -1.04687266       0.07675980       0.44907662      -1.03173184
H        9.30911800       9.48477000      10.62790400      -0.00921949      -0.01037721      -0.00386009      -0.08792109      -0.96777616      -1.62259278      -0.07870160      -0.95739895      -1.61873269
H        9.36795400       9.97083400      11.89768600       0.00896864      -0.01228773      -0.01077421      -0.24522896       0.28009374       2.64088361      -0.25419760       0.29238147       2.65165782
O       10.54319100      10.57563700      14.83576300       0.02103674       0.03218414       0.00319802      -2.01421512      -3.25675486       4.26725756      -2.03525186      -3.28893900       4.26405954
H       10.95031400      11.14586000      14.28480900      -0.01319256      -0.00297780      -0.00409788       2.79084239       2.72940927      -2.96590275       2.80403495       2.73238707      -2.96180487
H       11.08591500      10.40868600      15.65215600      -0.01111233      -0.01829278       0.00067127      -0.68045783       0.42621741      -1.53573572      -0.66934550       0.44451019      -1.53640699
O       13.92030500      12.08145900      14.86182100       0.01755360       0.00487569       0.00080069       0.78767613       0.45243156       0.40651499       0.77012253       0.44755587       0.40571430
H       13.12639600      12.25445300      15.35663800      -0.00720407      -0.00572445      -0.01032072      -0.42082123       0.05434150       0.15227324      -0.41361716       0.06006595       0.16259396
H       13.69332900      11.46977700      14.17553600      -0.01561847      -0.00672720       0.00503944      -0.43766638      -0.57186769      -0.65065457      -0.42204791      -0.56514049      -0.65569401
O       16.78283900      11.64080200      12.09449500       0.00535170      -0.00184357       0.00418334       0.75529293      -0.58661091       0.99298804       0.74994123      -0.58476734       0.98880470
H       15.85940000      11.59815700      12.39563600      -0.00398283       0.00362914      -0.00751887       0.67834885      -0.07140155       0.12693249       0.68233168      -0.07503069       0.13445136
H       17.37359400      11.25879700      12.80640300       0.00511429      -0.00166363       0.00016162      -1.42589155       0.68294054      -1.13095787      -1.43100584       0.68460417      -1.13111949
O       11.11331800       8.69754800       8.37509200       0.00560469      -0.00300388      -0.00312483       0.92640037      -1.02083509      -0.20394948       0.92079568      -1.01783121      -0.20082465
H       11.42145800       8.70927900       7.46080900      -0.00958614      -0.00042368       0.00884404       0.03318533      -0.09362992       0.15112817       0.04277147      -0.09320624       0.14228413
H       10.47934600       9.38372700       8.41235500      -0.00619428       0.01090416       0.00089179      -0.98663865       1.14115116       0.02366829      -0.98044437       1.13024700       0.02277650
O        9.86159600      13.61003200      14.61925500      -0.00599846      -0.00482269       0.00249396       0.22718969       2.56115560      -0.73478987       0.23318815       2.56597829      -0.73728383
H       10.55195900      13.97041300      15.18735100       0.00337238       0.00517157      -0.00971440      -0.16566915      -0.30252343      -0.04604023      -0.16904153      -0.30769500      -0.03632583
H        9.77303000      12.70300500      14.76518700       0.00701439      -0.00901875       0.00607944      -0.12259196      -2.28436193       0.77133018      -0.12960635      -2.27534318       0.76525074
O       11.23661500      13.99863800      11.17370900      -0.02366228      -0.01122671      -0.00983083       0.01694794      -0.71557015       0.10518199       0.04061022      -0.70434344       0.11501282
H       10.81592700      13.44382200      10.46833800       0.03421623       0.02522518       0.04207591       0.26851765       0.74977745       0.44274143       0.23430142       0.72455227       0.40066552
H       10.65023200      13.86408000      11.92724600       0.00254965       0.02235440      -0.00637956      -0.02436048       0.31624947       0.13589279      -0.02691013       0.29389507       0.14227235
O       12.01112400      11.03780700      12.06497100      -0.01939873      -0.01666280       0.00847534      -1.08349196      -0.77349737      -0.16431778      -1.06409323      -0.75683457      -0.17279312
H       11.19905500      10.68747800      11.58218800       0.03088144       0.00489197       0.02876681       1.62194065       0.94035236       0.71411002       1.59105921       0.93546039       0.68534321
H       12.00000000      12.00000000      12.00000000      -0.00338273       0.00912131      -0.01082870      -0.15694951       0.23089675      -0.44586393      -0.15356678       0.22177544      -0.43503523
27
Properties=species:S:1:pos:R:3:REF_forces:R:3:DFT_forces:R:3:FOUNDATION_forces:R:3 REF_energy=0.03674821652384708 charge=0 spin=1 external_field="0.0 0.0 0.0" config_type=ORCA_DFT source_file=C_DFTprod_cutcluster_0458.out orca_step=0 DFT_energy=-18719.687861158476 FOUNDATION_energy=-18719.724609375 pbc="F F F"
O       10.83217500      13.54459200       8.34845400      -0.00761213       0.00251081       0.00246813       0.58192245      -1.00025032      -1.34754489       0.58953458      -1.00276113      -1.35001302
H       10.00139500      13.31748500       8.74654100      -0.00362657      -0.00119377      -0.00972413      -0.87974749      -0.06757029       0.57960172      -0.87612092      -0.06637652       0.58932585
H       10.97135800      12.78758100       7.72878100      -0.00311313       0.00241312      -0.00371993      -0.00681219       0.99127039       0.59528237      -0.00369906       0.98885727       0.59900230
O       12.38835600      12.79690000      12.47337100      -0.00475691       0.02932107      -0.00097712      -0.16447641      -1.05248630       0.06064127      -0.15971950      -1.08180737       0.06161839
H       13.16313200      12.57288900      13.11013700      -0.05379783      -0.01027170      -0.02392232      -1.64767431      -0.32499924      -1.11323607      -1.59387648      -0.31472754      -1.08931375
H       12.00000000      12.00000000      12.00000000       0.04033780      -0.00982316       0.01557864       1.27466285       1.31776087       1.27479459       1.23432505       1.32758403       1.25921595
O       15.55392100      12.74629300       8.98499400       0.00646804       0.01125667      -0.01289327       0.12831662      -0.73858579      -0.76972736       0.12184858      -0.74984246      -0.75683409
H       14.66717500      12.98785500       9.30349600      -0.01399177       0.00248846       0.01345798      -0.37961667       0.31425547      -0.20096176      -0.36562490       0.31176701      -0.21441974
H       15.43395400      12.27896700       8.12994000       0.00567861      -0.01494122      -0.00058449      -0.00319023       0.54246038       0.93241351      -0.00886884       0.55740160       0.93299800
O       11.88754700      15.87122300      14.16641700       0.00404365       0.00112038      -0.00736090      -0.72965651      -1.91761584      -0.47274723      -0.73370016      -1.91873622      -0.46538633
H       11.08494200      16.06190300      13.64237300       0.00655218      -0.00382983       0.00159742       0.61472495       0.01798651       0.38296332       0.60817277       0.02181634       0.38136590
H       11.89616300      14.86359200      14.14771400      -0.01473388       0.00281972       0.00859267       0.13603528       1.83463270       0.04579320       0.15076916       1.83181298       0.03720053
O       15.73267000      11.47764600      11.61109300       0.01983141      -0.01305527       0.01440465      -1.12482573       1.72405654      -1.00882912      -1.14465714       1.73711181      -1.02323377
H       15.23715300      11.69749800      10.75468300      -0.01494990       0.00855861      -0.01089058       1.36188938      -0.67602607       1.49727633       1.37683928      -0.68458468       1.50816691
H       15.84760300      10.54674300      11.69440200      -0.00226181       0.01178893       0.00072305      -0.05636378      -1.00799469      -0.29176603      -0.05410197      -1.01978362      -0.29248908
O       14.22759700      12.43452000      14.31159600       0.05518217      -0.00334497       0.00147884       0.73842258       0.09272088       0.10643962       0.68324041       0.09606585       0.10496078
H       14.44949100      11.71741300      14.92847900      -0.02330295       0.00017067       0.00614109      -0.01404748       0.37974050      -0.48623071       0.00925547       0.37956983      -0.49237180
H       15.03037700      12.65150400      13.79513300      -0.00397240      -0.00952147      -0.00665699      -0.31620457      -0.43518989       0.37122326      -0.31223217      -0.42566842       0.37788025
O        8.70808300      12.78008800      14.23670700      -0.02032290      -0.00801474      -0.00353028       0.22926379      -0.67767733       0.51949750       0.24958669      -0.66966259       0.52302778
H        8.41822600      13.37480600      13.56172300       0.00905672       0.00669389       0.00132344      -0.27203580       0.65008055      -0.61289879      -0.28109252       0.64338666      -0.61422223
H        9.09448300      12.04158900      13.75473200       0.01309308       0.00130455      -0.00119108       0.06753887       0.05342115       0.08997869       0.05444579       0.05211660       0.09116977
O        8.22393200      11.66318900       9.69264300      -0.00060004       0.00182211       0.01261544       0.11849120      -0.00641130       0.01007451       0.11909124      -0.00823341      -0.00254093
H        7.48837700      11.55377400      10.30091900      -0.00314837      -0.00530786      -0.00257153      -0.11757069       0.13488276       0.04486174      -0.11442232       0.14019062       0.04743327
H        8.49294400      10.76139100       9.49968800      -0.00171655       0.00058331      -0.00153831       0.08113543      -0.08114484      -0.08981517       0.08285198      -0.08172815      -0.08827686
O       13.04245500      13.42915300       9.97568500      -0.02028657      -0.01685552      -0.00307749       0.30777346       0.12698767       1.55997361       0.32806003       0.14384319       1.56305110
H       12.77095700      13.54912700      10.95153400      -0.01014603       0.00546758       0.01310527       0.42543291      -0.39741920      -1.78746391       0.43557894      -0.40288678      -1.80056918
H       12.27790600      13.52533500       9.39886200       0.04209591       0.00783973      -0.00284773      -0.35338797       0.20311459       0.11040580      -0.39548388       0.19527486       0.11325353
27
Properties=species:S:1:pos:R:3:REF_forces:R:3:DFT_forces:R:3:FOUNDATION_forces:R:3 REF_energy=0.00945111743567395 charge=0 spin=1 external_field="0.0 0.0 0.0" config_type=ORCA_DFT source_file=C_DFTprod_cutcluster_0460.out orca_step=0 DFT_energy=-18719.621408257564 FOUNDATION_energy=-18719.630859375 pbc="F F F"
O       11.08518400      11.97864600      12.32203400       0.00874809       0.02964072       0.00393482       0.74118153      -0.12349950       0.44807400       0.73243344      -0.15314022       0.44413918
H       11.18949900      12.42313100      13.18924000       0.00039169       0.00329316       0.00118518      -0.25498501      -0.24465334      -0.22899985      -0.25537670      -0.24794650      -0.23018503
H       12.00000000      12.00000000      12.00000000      -0.01656043      -0.00607165      -0.00335766      -0.16493083      -0.11502361      -0.17522661      -0.14837040      -0.10895196      -0.17186895
O       14.33584200      11.21687400      16.54516200      -0.00131564       0.00196879       0.00312558       0.64187230       0.25769110       1.44116226       0.64318794       0.25572231       1.43803668
H       13.70961600      11.37476100      17.26155100       0.00199088      -0.00077375       0.00413080       0.21082770      -0.04075441       0.00684515       0.20883682      -0.03998066       0.00271435
H       13.79501600      11.11284800      15.79140800       0.00411860      -0.00205990      -0.00565248      -0.82988783      -0.20676304      -1.49146348      -0.83400643      -0.20470314      -1.48581100
O       14.05960700      12.47606800      12.62455300      -0.00035301       0.00158305      -0.01110966      -0.38300523      -0.40253292      -0.00906494      -0.38265222      -0.40411597       0.00204472
H       14.93454900      12.13793800      12.50699400       0.00439938       0.00019426       0.01452606       0.77203955      -1.22367494      -0.30499251       0.76764017      -1.22386920      -0.31951857
H       14.31960400      13.36588100      12.79014300      -0.00320339      -0.00641242      -0.00603090      -0.46829861       1.58370778       0.31121581      -0.46509522       1.59012020       0.31724671
O        7.50149100      12.03993600      13.53585500       0.00633152       0.00353392      -0.00146272       0.73266305      -0.19166311       0.15402318       0.72633153      -0.19519703       0.15548590
H        6.93389200      12.42453000      12.87247100      -0.00058631       0.00107944       0.00051903      -0.22908207       0.21238136      -0.28355969      -0.22849576       0.21130192      -0.28407872
H        8.39356900      12.14663600      13.15976400      -0.00034996       0.00114591       0.00255004      -0.47874587       0.04185098       0.17029790      -0.47839591       0.04070507       0.16774786
O        9.50949200      14.00991200      11.90645400      -0.00536240      -0.00858328       0.02280231      -0.64019013       1.44801476       0.01656516      -0.63482773       1.45659804      -0.00623715
H       10.05172900      14.70498100      12.34966300      -0.00487320      -0.01644702      -0.01046537      -0.25035348      -0.79398186      -0.48804216      -0.24548028      -0.77753484      -0.47757679
H       10.01853100      13.19446000      11.89527500       0.00353201      -0.00851013      -0.00727547       0.64020993      -0.31803186       0.00072238       0.63667792      -0.30952173       0.00799785
O       11.07214800      13.28935700      14.76346800      -0.02966767       0.00763026      -0.01502183      -0.31592479       0.88687423       0.18389992      -0.28625712       0.87924397       0.19892175
H       11.07182800      12.66792900      15.48204800       0.01234049      -0.00391598      -0.00020114       0.12596622      -0.64914621       0.47032335       0.11362573      -0.64523023       0.47052449
H       10.43288200      13.95402900      15.07159700       0.00079692      -0.01316630      -0.00289749       0.17005051      -0.22176733      -0.47361117       0.16925359      -0.20860103      -0.47071368
O       11.53187300      14.89417700       9.87153900      -0.00327980      -0.01042811      -0.01642000       1.56308866      -0.19777318      -1.19966947       1.56636846      -0.18734507      -1.18324947
H       11.70728900      14.17275200       9.24331500       0.01312161       0.00606936      -0.00255755       0.15900192       0.37113234       0.28394576       0.14588031       0.36506298       0.28650331
H       10.66361100      14.71011600      10.16742400      -0.00266952      -0.01173314       0.00914183      -1.60751707      -0.19766262       1.04613819      -1.60484755      -0.18592948       1.03699636
O       10.71049700      16.37156900      12.91368200       0.01088277       0.02519044       0.01121712      -1.92922529       0.33101228      -0.15282273      -1.94010806       0.30582184      -0.16403985
H       11.23340100      16.40166000      13.70982200      -0.00225408       0.00193515      -0.00317510       0.12386558       0.13601656       0.48948465       0.12611966       0.13408141       0.49265975
H        9.77723500      16.65266400      13.14734500      -0.00176922      -0.00287266       0.00172050       1.75866910      -0.33759050      -0.21468847       1.76043832      -0.33471784      -0.21640897
O        9.71235600      12.96122300       7.82234400       0.00090873       0.00746533       0.00807948       0.39863986       1.66637024       0.45345269       0.39773113       1.65890491       0.44537321
H        9.71839100      13.44229000       8.68494100       0.00382161       0.00306752       0.00068472      -0.25086132      -0.80367729      -0.80034514      -0.25468293      -0.80674481      -0.80102986
H        9.90785200      13.70710400       7.21074600       0.00086057      -0.00282254       0.00200931      -0.23506832      -0.86685588       0.34633575      -0.23592889      -0.86403334       0.34432644
27
Properties=species:S:1:pos:R:3:REF_forces:R:3:DFT_forces:R:3:FOUNDATION_forces:R:3 REF_energy=0.010357991584896808 charge=0 spin=1 external_field="0.0 0.0 0.0" config_type=ORCA_DFT source_file=C_DFTprod_cutcluster_0465.out orca_step=0 DFT_energy=-18719.380267008415 FOUNDATION_energy=-18719.390625 pbc="F F F"
O        7.85710600      13.88371300      14.26950800      -0.01209251       0.00123070       0.00120328      -0.30999906      -0.06708451      -0.13528657      -0.29790655      -0.06831521      -0.13648985
H        7.10754100      13.97486300      13.66471800       0.00995346      -0.00473459       0.00030029       0.19970562      -0.02958944       0.22959608       0.18975216      -0.02485485       0.22929579
H        8.62185600      14.16154300      13.76151500       0.00618475       0.00928845       0.00145543       0.23507752       0.13278021      -0.07881913       0.22889277       0.12349176      -0.08027456
O       16.32918000      10.93301000      12.02658200       0.00576575       0.00726940       0.00349199      -1.78214543       1.51585461      -2.77485455      -1.78791118       1.50858521      -2.77834654
H       16.87703400      11.46760800      11.42083200       0.00050075       0.00682332      -0.00260531      -0.20371531      -0.49104757       0.61171866      -0.20421606      -0.49787089       0.61432397
H       16.84162800      10.59586800      12.69961200      -0.00840477      -0.00525943       0.00144520       2.05961438      -1.09150830       2.12569919       2.06801915      -1.08624887       2.12425399
O       14.57496400      12.77371900      13.19860300       0.02260646      -0.00251458       0.01371322       0.04466608       0.94391020       1.47062931       0.02205962       0.94642478       1.45691609
H       15.06659000      13.09971600      13.99774000      -0.00860431       0.00773040      -0.00932789      -0.70478900      -0.57784607      -1.32014942      -0.69618469      -0.58557647      -1.31082153
H       15.11818900      12.09143200      12.80031200       0.00655380      -0.00912386      -0.00040487       0.65044364      -0.38407528      -0.16980142       0.64388984      -0.37495142      -0.16939655
O       12.05450800      16.61204000      12.88114400       0.00547173       0.02506636      -0.00298770       0.22455209       0.87844430       0.44935857       0.21908036       0.85337794       0.45234627
H       11.28314400      16.73995300      13.43365000      -0.00190371       0.00941452       0.01102554      -0.19621411      -0.06272284       0.08988922      -0.19431040      -0.07213736       0.07886368
H       12.00142500      15.71855600      12.56121800      -0.00388226      -0.03877419      -0.01641139       0.03973162      -0.74553734      -0.60307631       0.04361388      -0.70676315      -0.58666492
O       12.00000000      12.00000000      12.00000000      -0.01136595       0.01057367       0.02627942       0.30991226       0.06246789       0.74794456       0.32127821       0.05189422       0.72166514
H       11.59912000      12.15728700      12.87524600       0.02344570      -0.01553047      -0.01082480       0.12482758       0.03475453      -0.51051360       0.10138188       0.05028500      -0.49968880
H       12.94757500      12.12290400      12.21598800      -0.03068471       0.00683935      -0.01846862      -0.47870252      -0.09386065      -0.04037995      -0.44801781      -0.10070000      -0.02191133
O       14.98387400      16.18597000      12.96922500      -0.00821368      -0.00536504      -0.00112565       1.73926266       0.19074054      -0.52425476       1.74747634       0.19610558      -0.52312911
H       14.50034700      16.99638900      12.91719600       0.00339532      -0.00744535       0.00059997      -0.64890540       0.68945859      -0.14918406      -0.65230072       0.69690394      -0.14978403
H       14.43667700      15.61405900      13.46464500      -0.00268617      -0.00704855      -0.01087115      -1.02822712      -0.92801065       0.59106149      -1.02554095      -0.92096210       0.60193264
O       12.43857700      14.61314600      10.52736500       0.00908536       0.01371013       0.00068438       0.51254303      -0.83012767       0.87338304       0.50345767      -0.84383780       0.87269866
H       11.46902800      14.63376200      10.55300300       0.01994350      -0.00364760      -0.00651195       0.24456453      -0.20156041      -0.18578165       0.22462103      -0.19791281      -0.17926970
H       12.65180600      13.74815900      10.96767400      -0.01419820       0.00530297       0.00585403      -0.45671316       1.23254437      -0.66963975      -0.44251496       1.22724140      -0.67549378
O        9.91140100      13.74980300      10.44376400       0.02259333       0.01770577       0.00513497      -2.51010912       0.36219061       0.70513281      -2.53270245       0.34448484       0.69999784
H        8.98239700      13.94495400      10.77195300      -0.01988880      -0.01103066       0.00644055       1.72422834      -0.27112897      -0.72752938       1.74411714      -0.26009831      -0.73396993
H       10.03915400      12.82558000      10.67786700       0.00194786      -0.00656818      -0.00182632       0.37258429      -0.17967256       0.03257089       0.37063643      -0.17310438       0.03439721
O       11.17652500      14.31827100      14.62502500       0.00974006       0.00063967      -0.02287209       0.03480986      -0.55259115       3.69050252       0.02506980      -0.55323082       3.71337461
H       10.64151100      13.80114700      15.38085800      -0.01392290      -0.02177518       0.02721953       1.90582100       1.84992141      -2.42716980       1.91974390       1.87169659      -2.45438933
H       11.92711100      14.81415000      15.13094900      -0.01133974       0.01722342      -0.00061010      -2.10282429      -1.38670403      -1.30104612      -2.09148455      -1.40392745      -1.30043602
27
Properties=species:S:1:pos:R:3:REF_forces:R:3:DFT_forces:R:3:FOUNDATION_forces:R:3 REF_energy=0.0006118763158156071 charge=0 spin=1 external_field="0.0 0.0 0.0" config_type=ORCA_DFT source_file=C_DFTprod_cutcluster_0470.out orca_step=0 DFT_energy=-18719.321653748684 FOUNDATION_energy=-18719.322265625 pbc="F F F"
O       10.86925900      12.40952600      15.78498100       0.01934072      -0.00525157      -0.00346625      -1.02461353       0.77725251      -0.00248456      -1.04395425       0.78250408       0.00098169
H       11.70924100      12.39704800      15.32872200      -0.02473640       0.01123890       0.00806453       0.05021859      -0.40618995      -0.31067485       0.07495499      -0.41742885      -0.31873938
H       10.23838300      12.89605900      15.20575300       0.00354442       0.00051823      -0.00505664       0.81309488      -0.51800981       0.44099827       0.80955046      -0.51852804       0.44605491
O       16.89361400      12.03540000      11.19464600       0.00247923      -0.00292667       0.00062016      -0.89945706      -1.09039100      -2.20185229      -0.90193629      -1.08746433      -2.20247245
H       17.10408000      12.46266900      11.98521000      -0.00084017       0.00040662       0.00069084       0.38178458       1.14037335       1.93604448       0.38262475       1.13996673       1.93535364
H       16.01933900      12.35018100      10.91460400       0.00230351       0.00257353      -0.00407445       0.51003769      -0.05583902       0.27790809       0.50773418      -0.05841255       0.28198254
O       12.36749900       9.44996600      15.29909900       0.00547808       0.02050006      -0.00587940       2.92736166       2.27523410      -0.00713029       2.92188358       2.25473404      -0.00125089
H       13.00918800       9.28567200      14.57376800      -0.00532043      -0.01394197       0.01657457      -1.05756032      -0.10582394       0.51068566      -1.05223989      -0.09188197       0.49411109
H       11.70976300       8.82072000      15.25557100       0.00059489      -0.00721832      -0.00240211      -2.01567098      -2.12315436      -0.32464962      -2.01626587      -2.11593604      -0.32224751
O       13.06451000      14.39026300      14.68849200       0.01534566      -0.00151035      -0.00779659      -1.35931555       0.44089872       1.62754041      -1.37466121       0.44240907       1.63533700
H       12.97883600      13.61409900      14.12332200      -0.01709151       0.00645966      -0.00154438      -0.36047280      -0.07322317       0.34282470      -0.34338129      -0.07968283       0.34436908
H       12.36417100      14.36040700      15.43660000      -0.00988226      -0.00717805       0.00827335       1.67510099      -0.36539168      -2.05308820       1.68498325      -0.35821363      -2.06136155
O       13.29472600       8.86677000      12.70109200       0.00754143      -0.00909470      -0.01175687       0.83548672      -0.77110897      -1.26179895       0.82794529      -0.76201427      -1.25004208
H       14.27367300       8.78918500      12.52715500      -0.00278907      -0.00226412       0.00663492      -1.65630298      -0.08484908      -0.01752140      -1.65351391      -0.08258496      -0.02415632
H       12.81406100       8.31586800      12.02254500       0.00053159       0.00762670      -0.00497661       1.04089669       0.84471755       1.03863325       1.04036510       0.83709085       1.04360986
O       11.38293600      11.93610300      12.74302200       0.00127568      -0.01153529       0.01604653       0.19889428      -0.17433377      -0.05776405       0.19761860      -0.16279848      -0.07381058
H       12.00000000      12.00000000      12.00000000      -0.01883584       0.00651253      -0.01280317      -0.40795034       0.09786818       0.16660580      -0.38911450       0.09135565       0.17940897
H       10.80193000      12.71309600      12.75792000       0.02121761       0.00499882       0.00175312       0.12663301      -0.05585444      -0.08946365       0.10541540      -0.06085326      -0.09121677
O        8.94256600       9.68866800      12.74196700       0.00836699      -0.00440738      -0.02112952       0.32051991      -0.45994756       0.29246619       0.31215292      -0.45554018       0.31359571
H        9.74071800      10.25680000      12.74297700       0.00233806      -0.00035675       0.00988179      -0.15899261      -0.61563666       0.39898222      -0.16133067      -0.61527991       0.38910043
H        9.13910800       8.80650600      13.13979000      -0.00176150       0.00407664       0.02555610       0.11586055       1.33978705      -0.41404946       0.11762205       1.33571041      -0.43960556
O        9.51718200      14.00763900      13.55777000       0.00398168      -0.00307542      -0.00055200      -0.26533946       0.63082808      -1.27952105      -0.26932114       0.63390350      -1.27896905
H        8.66430900      13.85813400      13.06933700      -0.00413687       0.00402691      -0.00477607       1.27925103       0.45871194       0.61421674       1.28338790       0.45468503       0.61899281
H        9.99315200      14.77405000      13.13653800      -0.00004314      -0.00015377       0.00714086      -0.99898611      -1.00177180       0.59397064      -0.99894297      -1.00161803       0.58682978
O        8.71037400       9.03090400      10.11749400      -0.01143716       0.01536444      -0.00626619       0.68816008      -0.62585649      -0.29082413       0.69959724      -0.64122093      -0.28455794
H        8.05192900       9.45664700       9.57767400       0.00262690      -0.01466548      -0.00573414      -0.31158065       0.34968147       0.17020643      -0.31420755       0.36434695       0.17594057
H        8.74170800       9.38847900      11.02023000      -0.00009196      -0.00072302      -0.00302211      -0.44705831       0.17202867      -0.10026023      -0.44696635       0.17275169      -0.09723812
27
Properties=species:S:1:pos:R:3:REF_forces:R:3:DFT_forces:R:3:FOUNDATION_forces:R:3 REF_energy=0.009709795580420177 charge=0 spin=1 external_field="0.0 0.0 0.0" config_type=ORCA_DFT source_file=C_DFTprod_cutcluster_0480.out orca_step=0 DFT_energy=-18720.04888395442 FOUNDATION_energy=-18720.05859375 pbc="F F F"
O        9.81029900      12.20599100      12.22656400       0.02073253       0.01565952       0.00170433       0.01371972       0.58836461       1.16458630      -0.00701281       0.57270509       1.16288197
H        9.56899700      12.84052800      11.55082900      -0.01285361       0.01123910      -0.01516746      -0.09845850       0.04268705      -0.35197006      -0.08560489       0.03144795      -0.33680260
H        9.90528300      12.77006100      13.04551000       0.00762617       0.00274632       0.00425295       0.41197350      -0.47152981      -0.86664458       0.40434733      -0.47427613      -0.87089753
O       14.74245800      10.56749700      11.26776900       0.00103668       0.01126777       0.00522693       0.03290123      -1.01715625      -0.76562444       0.03186455      -1.02842402      -0.77085137
H       14.77654100      10.98463500      10.38328100       0.00581810      -0.00412994      -0.00933514       0.09949918      -0.69118714       0.44829275       0.09368108      -0.68705720       0.45762789
H       14.65905200       9.57843900      11.12784000      -0.01088910       0.00313937       0.00209542       0.00718243       1.84782612       0.17584120       0.01807153       1.84468675       0.17374578
O       15.13254200      11.98802600      14.12473200       0.00187464       0.00718692      -0.00148788      -1.26535849       1.16134229      -1.02664831      -1.26723313       1.15415537      -1.02516043
H       14.32413600      12.56564100      13.98097500       0.01080895      -0.01556489       0.00571196       1.39790416      -1.06779465       0.39918514       1.38709521      -1.05222976       0.39347318
H       15.46073200      11.86593900      13.21159000       0.00255205       0.00186519       0.00645670      -0.18297149      -0.14103356       0.63653114      -0.18552354      -0.14289875       0.63007444
O        9.05064300       9.76335600      13.21889600       0.00558458      -0.00826867       0.00056319      -0.82317890       0.87213533      -0.12181641      -0.82876348       0.88040400      -0.12237960
H        9.24812200      10.70822500      13.00570700       0.00043803      -0.01611932       0.01520118      -0.09060321      -0.79182275      -0.11499918      -0.09104124      -0.77570343      -0.13020036
H        8.11367900       9.67786300      12.95884100       0.00136399       0.01144673      -0.00846514       0.72973323      -0.16536668       0.18983238       0.72836924      -0.17681341       0.19829752
O       10.86489400      13.88055700      14.16541700      -0.00561168      -0.00710027      -0.00014096      -3.17114236      -1.18282227       2.96229262      -3.16553068      -1.17572200       2.96243358
H       11.03583500      14.60856400      13.62119500      -0.00555467       0.00865010      -0.01276866       0.91563053       1.95428733      -1.95675353       0.92118520       1.94563723      -1.94398487
H       10.02235100      14.17973300      14.65891200      -0.00155460      -0.00528814       0.00620679       2.08655656      -0.78080095      -0.82279416       2.08811116      -0.77551281      -0.82900095
O       12.63925000      12.45807500      11.45557000      -0.00683538      -0.01395498      -0.00005979       0.04526191       0.60469677       0.12741416       0.05209729       0.61865175       0.12747395
H       12.00000000      12.00000000      12.00000000       0.00191037      -0.00699158       0.00909923      -0.82231959      -0.04308388       0.19056658      -0.82422996      -0.03609230       0.18146735
H       13.40765200      11.89565300      11.53777000      -0.00605414      -0.00746661      -0.00032691       0.64820781      -0.50194329      -0.05253546       0.65426195      -0.49447668      -0.05220855
O       11.96896600      13.20750200       8.88514900      -0.00907165       0.02258675       0.00125232      -0.95453066       0.46605943      -3.46189723      -0.94545901       0.44347268      -3.46314955
H       12.13818100      13.02579700       9.77614700      -0.00284553       0.00557744      -0.00903521       0.03965613      -1.15306426       2.19211902       0.04250166      -1.15864170       2.20115423
H       11.32998300      12.58693900       8.46643400       0.01128201      -0.01516557       0.01050002       0.87031458       0.59267527       1.06352312       0.85903257       0.60784084       1.05302310
O       11.93745900      15.25512900      12.00871600       0.00576666       0.01354054      -0.00530002       0.02870426      -0.09979933       0.01067090       0.02293760      -0.11333987       0.01597092
H       12.39621300      14.46138900      11.67867900      -0.00531027       0.00344834      -0.00585670      -0.15074374       0.03757045       0.16165242      -0.14543347       0.03412211       0.16750912
H       12.62890300      15.82361300      12.35598100      -0.00310955      -0.01077504       0.00095770       0.11446676       0.09884211      -0.07985215       0.11757631       0.10961715      -0.08080985
O       11.44125800       8.47063500      12.75528100      -0.01101074      -0.02384751      -0.01640551       2.54111138      -2.41584532       0.17049809       2.55212212      -2.39199781       0.18690360
H       11.59507700       7.62357300      13.28854300       0.00819539       0.01706406       0.01347249      -0.96322675       2.28878685      -1.00627977      -0.97142214       2.27172279      -1.01975226
H       10.64451900       8.93111400      12.95735900      -0.00428987      -0.00074635       0.00164782      -1.46028972      -0.03202350       0.73480951      -1.45599985      -0.03127715       0.73316169
27
Properties=species:S:1:pos:R:3:REF_forces:R:3:DFT_forces:R:3:FOUNDATION_forces:R:3 REF_energy=0.024041412772930926 charge=0 spin=1 external_field="0.0 0.0 0.0" config_type=ORCA_DFT source_file=C_DFTprod_cutcluster_0493.out orca_step=0 DFT_energy=-18720.042364837227 FOUNDATION_energy=-18720.06640625 pbc="F F F"
O       11.91628600      13.71860200       8.83069900       0.01620681       0.00252481       0.01872700      -0.14982693       0.76847466       1.02188235      -0.16603374       0.76594985       1.00315535
H       11.22628500      13.08081300       8.72546700      -0.01628025      -0.00920132      -0.01726492      -0.50293301      -1.21343711      -0.72631438      -0.48665276      -1.20423579      -0.70904946
H       11.47886700      14.20617900       9.56147700      -0.00846232       0.00506474       0.01173979       0.85796331       0.35353108      -0.10744600       0.86642563       0.34846634      -0.11918579
O        9.20264100      10.61771100       9.91511000      -0.00912820      -0.00982603       0.01263396       0.66303099      -0.00524500      -0.39190557       0.67215919       0.00458103      -0.40453953
H        9.74283500      11.13249100      10.52688000       0.01498124       0.00711044      -0.00777248      -0.06641093       0.14677771       0.16253718      -0.08139217       0.13966727       0.17030966
H        8.36706100      10.46150200      10.33979500      -0.00400242      -0.00175851      -0.01392008      -0.44215259       0.02880047       0.33675360      -0.43815017       0.03055898       0.35067368
O       12.12520900      14.95527200      11.58196100       0.01627126      -0.02515563      -0.00466266       1.25561478      -0.71354314      -0.66034671       1.23934352      -0.68838751      -0.65568405
H       12.06224300      13.97012200      11.71689000      -0.00003016       0.01330343      -0.00424682      -0.57205594       1.03225938       0.18591006      -0.57202578       1.01895595       0.19015688
H       13.00038400      15.05839900      11.14827600      -0.00500116       0.01350459      -0.00452182      -0.80551002       0.22601243       0.43855387      -0.80050886       0.21250784       0.44307569
O       11.17587200      12.50972300      11.92609000      -0.00178532      -0.01385904       0.00452025      -0.36130564      -0.55779136       0.22442452      -0.35952032      -0.54393232       0.21990427
H       10.67387500      12.28660600      12.75240500       0.02146305      -0.00129221      -0.01158322       0.43610783       0.75808324      -0.87216706       0.41464478       0.75937545      -0.86058384
H       12.00000000      12.00000000      12.00000000      -0.02113014       0.02525039      -0.00509188      -0.34098878      -0.26039173      -0.06035886      -0.31985864      -0.28564212      -0.05526698
O        9.32623800      12.32481800      13.76021000       0.00635308       0.00678184       0.00695206       0.00164885      -1.29975281      -0.13743334      -0.00470423      -1.30653465      -0.14438540
H        9.20377500      11.45487700      14.17728200      -0.00170502      -0.00093987      -0.00603447      -0.18304029       0.63216988      -0.00475675      -0.18133527       0.63310975       0.00127772
H        9.03361500      12.99872400      14.35886200      -0.00786375       0.00145060       0.00634081      -0.23766272       0.44876480       0.57619388      -0.22979897       0.44731420       0.56985307
O       15.61679700      11.81042800      13.89264600       0.00811666      -0.00380423      -0.01196742      -0.56242115      -0.32567241      -0.47575784      -0.57053781      -0.32186818      -0.46379042
H       14.66080500      11.71555600      13.67528400      -0.01629526      -0.00575310       0.00836041       1.09419268       0.47903502       0.48052430       1.11048794       0.48478812       0.47216389
H       15.81830600      12.74580100      14.00733900      -0.00047094       0.00853556       0.00122152      -0.41696257      -0.13144540       0.00413799      -0.41649163      -0.13998096       0.00291647
O       13.01995800      10.60934700      12.14537500      -0.00951972      -0.01208497      -0.01440022       0.21393416      -1.31537391      -0.89566026       0.22345388      -1.30328894      -0.88126004
H       12.63926200       9.77829500      11.78499700       0.01622655       0.00644676       0.00690178       0.07974771       0.61466787       0.64521412       0.06352116       0.60822111       0.63831234
H       13.56957800      10.87017000      11.38064000       0.00664266       0.00170358      -0.00809202       0.26589744       0.45140152       0.10152279       0.25925478       0.44969794       0.10961481
O       14.34725600      12.24135900      10.04106100       0.00252544      -0.01203935       0.01685267      -1.33310855       0.47600461      -0.48394973      -1.33563399       0.48804396      -0.50080240
H       14.69162200      12.76679600      10.76475700       0.00422175      -0.00310659      -0.00151414       0.22569906       0.22699094       0.10771632       0.22147731       0.23009753       0.10923046
H       13.61862700      12.79815600       9.62867700      -0.01107461       0.00578583      -0.00602418       0.88669425      -0.75827520       0.47543362       0.89776886      -0.76406103       0.48145780
O       12.68897000      12.18813800      14.59793400      -0.00442356      -0.00583314       0.01956222      -1.37503523      -0.62240206       0.81860480      -1.37061167      -0.61656892       0.79904258
H       11.94795500      12.15037400      15.25411700       0.00454912      -0.00140135      -0.00022605       1.08739695       0.34173615      -0.70414391       1.08284783       0.34313750      -0.70391786
H       12.54940700      11.35898600      14.11164200      -0.00038499       0.00859278       0.00351023       0.28148645       0.21862025      -0.05916896       0.28187144       0.21002747      -0.06267919
27
Properties=species:S:1:pos:R:3:REF_forces:R:3:DFT_forces:R:3:FOUNDATION_forces:R:3 REF_energy=0.01062130619538948 charge=0 spin=1 external_field="0.0 0.0 0.0" config_type=ORCA_DFT source_file=C_DFTprod_cutcluster_0498.out orca_step=0 DFT_energy=-18720.471800568805 FOUNDATION_energy=-18720.482421875 pbc="F F F"
O       12.63290900      10.26086900      12.56940300       0.00037810       0.00725387      -0.00078257       0.27258000      -1.86233403      -0.04801073       0.27220190      -1.86958790      -0.04722816
H       11.87883500       9.95895500      13.10397700      -0.01001627      -0.00542522       0.00209342      -0.40656549       0.24855422       0.08928604      -0.39654922       0.25397944       0.08719262
H       12.88804900       9.39485700      12.15060300       0.00450956      -0.00478297      -0.00689178      -0.20687128       1.41399402       0.10690586      -0.21138084       1.41877699       0.11379764
O       10.22150800      12.58187000      14.12270400      -0.01777122      -0.01810676       0.01315950      -0.50486664       0.52638626       0.36806224      -0.48709542       0.54449302       0.35490274
H       10.90919400      12.74220300      14.80683400      -0.00092270       0.00424753       0.01120200       0.01683615      -0.00384632      -0.35025910       0.01775885      -0.00809385      -0.36146110
H        9.47945600      13.17995000      14.33504600       0.00137161       0.00629688      -0.00888069       0.51014059      -0.49535947      -0.10072123       0.50876898      -0.50165635      -0.09184054
O       10.11615300       9.75631200      14.48617400       0.00597821       0.00102659       0.00397655       1.22414432       0.13996506       1.05700501       1.21816611       0.13893847       1.05302846
H       10.09467800      10.71953900      14.35046400       0.00682044      -0.00150159       0.00152091      -0.32445967       0.13173917      -0.12794875      -0.33128011       0.13324076      -0.12946966
H       10.63482900       9.70933000      15.32756900      -0.00508872       0.00840943      -0.00092854      -0.71990076      -0.21394866      -0.94149866      -0.71481204      -0.22235809      -0.94057012
O       11.66538400      12.72524700      11.44578100      -0.00134212       0.01453144       0.00518365      -0.01869372       0.55983508      -0.20691155      -0.01735160       0.54530364      -0.21209520
H       12.00000000      12.00000000      12.00000000      -0.00549097      -0.00919736      -0.00771862      -0.31381257       0.22217017      -0.19839045      -0.30832160       0.23136753      -0.19067183
H       11.05958000      13.27884600      11.96264400       0.01320137      -0.00119575      -0.00636332       0.44670154      -0.61607071       0.20507084       0.43350017      -0.61487496       0.21143416
O       14.56896300      10.93998900      14.42796500       0.01439475       0.00407479       0.01518025       0.56589126       0.02847903       0.89120736       0.55149651       0.02440424       0.87602711
H       14.88871400      10.22379500      14.99876500      -0.00497796       0.00756750       0.00110253      -0.10457099       0.35983810      -0.24961994      -0.09959303       0.35227060      -0.25072247
H       13.92867600      10.53955000      13.83437400      -0.00552108      -0.00289619      -0.00486592      -0.43140086      -0.20274991      -0.63428662      -0.42587978      -0.19985372      -0.62942070
O       12.57594500      12.72168100      15.51477200      -0.02048725       0.01903015      -0.01779830       1.22069842      -0.69140286       0.62051034       1.24118567      -0.71043301       0.63830864
H       13.34053900      12.30344500      15.04700400       0.02188643      -0.00622911       0.00064922      -0.56575767       0.22342456      -0.27985149      -0.58764410       0.22965367      -0.28050071
H       12.86424700      12.48950400      16.41783400       0.00181282      -0.02127754      -0.00363308      -0.64282906       0.41096783      -0.24118970      -0.64464188       0.43224537      -0.23755662
O        9.18573700      10.55176600      11.34526500      -0.00997346       0.01954132      -0.02654556      -0.36771586       0.48197364      -2.60213426      -0.35774240       0.46243232      -2.57558870
H        9.34917000      11.01177000      12.14626300       0.01028221      -0.00989010       0.01957795       0.27731936       0.81093381       0.97918615       0.26703715       0.82082391       0.95960820
H        9.25445600      11.23191600      10.59375000      -0.00149105      -0.00980356       0.00690667       0.19097050      -1.35507992       1.64740948       0.19246155      -1.34527636       1.64050281
O       10.93163100       9.91900800       8.03086100      -0.00465282      -0.02234080      -0.01028201      -0.47005364       0.69665274      -0.71496579      -0.46540082       0.71899354      -0.70468378
H       10.55451500       9.92865200       7.13979800       0.00522707       0.01021205       0.00145689       0.26537381      -0.66113187      -0.03108896       0.26014674      -0.67134392      -0.03254585
H       10.65164100      10.81978900       8.26536000       0.00034665       0.00231671       0.00960736       0.21458835      -0.14786004       0.69772248       0.21424170      -0.15017675       0.68811512
O       10.04064600      12.41241200       9.15759400      -0.00713688       0.01447522       0.02016178      -2.41970450       1.61866676      -0.68721458      -2.41256762       1.60419154      -0.70737636
H        9.39125700      13.18784100       9.10804400      -0.00335956      -0.00864099      -0.00455313       1.38841581      -1.72603773      -0.06147488       1.39177537      -1.71739674      -0.05692175
H       10.80909300      12.78090400       9.57887900       0.01202219       0.00230447      -0.01253541       0.90354269       0.10224106       0.81320081       0.89152050       0.09993659       0.82573622
