27
Properties=species:S:1:pos:R:3:REF_forces:R:3 REF_energy=-18719.990542475483 charge=0 spin=1 external_field="0.0 0.0 0.0" config_type=ORCA_DFT source_file=C_DFTprod_cutcluster_0028.out orca_step=0 pbc="F F F"
O       11.91893400      15.11105300      12.02534600      -2.13573740      -0.37943089      -0.95974938
H       10.98014900      15.48889700      11.95803200       2.01181818      -0.90236153       0.19066089
H       11.87350100      14.22718600      11.56148400       0.13676347       1.35670419       0.62012041
O       11.93950900      14.07087000      14.61570100       0.65055857      -0.21471973      -0.48586228
H       12.88309800      13.95645400      14.85716100      -0.79458813       0.41342895      -0.29936601
H       11.95405000      14.33866200      13.65863400       0.15639034      -0.03833962       1.06271502
O       12.80592200      10.60399600      14.34731400      -0.20001389      -0.87139346       0.18569881
H       13.02227700       9.77405700      13.88856700       0.13778893       0.38334246      -0.09414933
H       12.26510900      10.27975600      15.08561900       0.09111080       0.45301442      -0.12889517
O       12.00000000      12.00000000      12.00000000       0.01843605      -0.28164098       0.49041138
H       12.11179400      11.60972600      12.91249100      -0.56760788       0.76622695      -0.96795881
H       11.09086600      12.36042000      11.89444000       0.52701206      -0.53110675       0.42003864
O        9.85359900      13.34894200      10.51213800      -0.03262843      -0.12126342      -0.23198135
H       10.06871600      14.15359900      10.01117000      -0.20975622      -0.65907962      -0.10002615
H        9.55400700      12.65212900       9.89531000       0.27383356       0.80413402       0.29491311
O       14.52563100      13.22128300      11.19668500      -3.47848933      -0.21038763      -0.88389515
H       13.73146900      12.74579400      11.59590300       1.10210834       0.92682460      -0.82059797
H       15.21472300      12.92873800      11.72203900       2.32823601      -0.70617806       1.63828834
O       12.15229000       9.38633400      10.74020500      -0.00702708       0.71335479       0.14847932
H       12.05068000      10.30386000      11.07196700      -0.10383571      -0.25357394       0.16739122
H       12.74667400       9.54488000      10.00225300       0.11553963      -0.33167238      -0.20305433
O       14.65815900      12.98274000      14.80259600      -0.56924712       1.36732999      -0.15000629
H       13.97475900      12.32556000      14.81538300      -0.43137437      -0.92401706      -0.07979270
H       15.48077300      12.54242000      14.88783800       1.08439354      -0.68313527       0.19202568
O        9.39551400      11.06628100      12.76000200      -0.06105676       1.66071757      -1.05917009
H        9.30720400      10.90607700      13.68000800      -0.11563800      -0.69025198       1.01040875
H        9.49639600      10.28307800      12.24271200       0.07301100      -1.04652561       0.04335338
27
Properties=species:S:1:pos:R:3:REF_forces:R:3 REF_energy=-18719.380267008415 charge=0 spin=1 external_field="0.0 0.0 0.0" config_type=ORCA_DFT source_file=C_DFTprod_cutcluster_0465.out orca_step=0 pbc="F F F"
O        7.85710600      13.88371300      14.26950800      -0.30999906      -0.06708451      -0.13528657
H        7.10754100      13.97486300      13.66471800       0.19970562      -0.02958944       0.22959608
H        8.62185600      14.16154300      13.76151500       0.23507752       0.13278021      -0.07881913
O       16.32918000      10.93301000      12.02658200      -1.78214543       1.51585461      -2.77485455
H       16.87703400      11.46760800      11.42083200      -0.20371531      -0.49104757       0.61171866
H       16.84162800      10.59586800      12.69961200       2.05961438      -1.09150830       2.12569919
O       14.57496400      12.77371900      13.19860300       0.04466608       0.94391020       1.47062931
H       15.06659000      13.09971600      13.99774000      -0.70478900      -0.57784607      -1.32014942
H       15.11818900      12.09143200      12.80031200       0.65044364      -0.38407528      -0.16980142
O       12.05450800      16.61204000      12.88114400       0.22455209       0.87844430       0.44935857
H       11.28314400      16.73995300      13.43365000      -0.19621411      -0.06272284       0.08988922
H       12.00142500      15.71855600      12.56121800       0.03973162      -0.74553734      -0.60307631
O       12.00000000      12.00000000      12.00000000       0.30991226       0.06246789       0.74794456
H       11.59912000      12.15728700      12.87524600       0.12482758       0.03475453      -0.51051360
H       12.94757500      12.12290400      12.21598800      -0.47870252      -0.09386065      -0.04037995
O       14.98387400      16.18597000      12.96922500       1.73926266       0.19074054      -0.52425476
H       14.50034700      16.99638900      12.91719600      -0.64890540       0.68945859      -0.14918406
H       14.43667700      15.61405900      13.46464500      -1.02822712      -0.92801065       0.59106149
O       12.43857700      14.61314600      10.52736500       0.51254303      -0.83012767       0.87338304
H       11.46902800      14.63376200      10.55300300       0.24456453      -0.20156041      -0.18578165
H       12.65180600      13.74815900      10.96767400      -0.45671316       1.23254437      -0.66963975
O        9.91140100      13.74980300      10.44376400      -2.51010912       0.36219061       0.70513281
H        8.98239700      13.94495400      10.77195300       1.72422834      -0.27112897      -0.72752938
H       10.03915400      12.82558000      10.67786700       0.37258429      -0.17967256       0.03257089
O       11.17652500      14.31827100      14.62502500       0.03480986      -0.55259115       3.69050252
H       10.64151100      13.80114700      15.38085800       1.90582100       1.84992141      -2.42716980
H       11.92711100      14.81415000      15.13094900      -2.10282429      -1.38670403      -1.30104612
27
Properties=species:S:1:pos:R:3:REF_forces:R:3 REF_energy=-18719.690915309802 charge=0 spin=1 external_field="0.0 0.0 0.0" config_type=ORCA_DFT source_file=C_DFTprod_cutcluster_0206.out orca_step=0 pbc="F F F"
O        9.58768000      10.81882400      12.19657600       2.12398570      -1.77040017       1.39138899
H        9.95562500      10.57025900      13.14189000      -1.34320939       0.97465566      -2.12032091
H       10.23639900      10.35413800      11.59513000      -1.17677858       0.95259755       0.56269322
O       14.37243000       9.23485000      12.36722500      -0.09602824      -1.04806282      -1.89007109
H       14.34925600      10.00624000      12.95564000       0.53186662       0.64043793      -0.54124559
H       14.72519800       9.41361300      11.45021000      -0.43144307       0.24163646       2.03962287
O        8.95699400      13.33973100      11.76168000       0.51836447       0.71811673       0.10947434
H        9.65762300      13.99826700      11.86899400      -0.28647953      -0.04968200      -0.30618992
H        9.39711900      12.48435300      11.93508800      -0.41604468      -0.27503900      -0.02740256
O       13.34157200      15.17168600      11.76489900       0.50916681       0.09083970      -2.03569689
H       13.59869500      15.27965100      10.79336900      -0.57193176      -0.31900086       2.13220984
H       13.16772100      14.22188400      11.88900900      -0.00674812       0.24639033      -0.03265132
O       12.18301300      12.63747600      12.68394000       1.35884448       0.31967988       0.45224433
H       11.37657400      13.00612800      13.03311200      -0.73623041      -0.16187667       0.23652932
H       12.00000000      12.00000000      12.00000000      -0.65345425      -0.36632592      -0.60841731
O       11.71023700      10.62433700      10.43329500       0.08707293       0.21068120      -1.07045806
H       12.26813700       9.88815200      10.70176300       0.29371436      -0.17488403      -0.17861136
H       11.71976000      10.67849800       9.44605900       0.04708179      -0.18702139       1.30456278
O       10.38159700      10.07392400      14.62666500       2.19564256      -2.46324480      -1.01280939
H       10.75485800      10.47338000      15.42139200       0.10565152      -0.06424179      -0.19322361
H       11.07660600       9.37814100      14.25822100      -2.01855139       2.15945202       1.57100771
O       14.39683300      11.40681500      13.92462300      -0.44483004       0.56008319      -1.04214728
H       14.28792700      11.04608500      14.77654600       0.31205178      -0.76737578       1.85511489
H       13.50560700      11.76516100      13.76690800       0.03681152       0.52139991      -0.57223078
O        9.89973000      13.60338800      14.76327100       0.42534606       0.73210327      -0.28616149
H       10.36196800      13.83821200      15.59518600      -0.42627382       0.25855170      -0.96225322
H        9.81991700      14.40515100      14.18225400       0.06240274      -0.97947031       1.22504246
27
Properties=species:S:1:pos:R:3:REF_forces:R:3 REF_energy=-18720.243947499275 charge=0 spin=1 external_field="0.0 0.0 0.0" config_type=ORCA_DFT source_file=C_DFTprod_cutcluster_0071.out orca_step=0 pbc="F F F"
O        9.20788800      15.08401500      11.36234200       1.36389983      -0.26055757      -0.20057023
H        9.92552600      14.56527700      10.89197200      -1.11253478       0.47684146       0.47137087
H        8.35717700      14.79182700      11.03911800      -0.07475622      -0.23305139      -0.28090106
O       13.55221900      14.93385600      12.47504000       2.08368839      -1.94673101      -1.63013290
H       13.47442000      14.06095400      12.88166000      -0.21400332       0.48687148       0.25167343
H       12.91730200      15.51787500      12.80691700      -1.95576541       1.34174731       1.22032710
O       11.32243900      13.40127200      14.28323800      -0.35488811      -2.45369469      -2.07307817
H       11.14264400      12.76057200      14.95799000      -0.04676549      -0.46909678       0.68620902
H       11.51748100      14.19648200      14.68512500       0.49423759       2.84261063       1.32908287
O        8.21547500      11.72384400      10.14637600      -0.11504942       0.00771691       0.36884056
H        8.53944400      11.71736400      11.06897500       0.14019450      -0.02165661      -0.26085114
H        7.40862500      11.19728800      10.18098400       0.13354995       0.02047272      -0.10216480
O       10.29274700       9.04224400      12.26495000      -0.07931083      -0.12905648      -0.31226241
H       10.80807700       9.91101200      12.27374200      -0.88721932      -1.69989331      -1.07381093
H       10.15048900       8.62207000      11.37302000       0.68626811       1.40664545       1.39270606
O       11.75522300      11.15587700      11.57604600       1.01684819       0.65261782       1.23426886
H       11.34799800      11.47147700      10.78613600      -0.65387277       0.25263667      -1.06230797
H       12.00000000      12.00000000      12.00000000      -0.11049404      -0.60451510      -0.11856391
O       11.21169200      16.23385100      13.26598100       1.29799479       0.64267284       1.21981515
H       10.62847100      15.77115700      12.68276900      -1.30086944      -0.02108325      -0.70863131
H       10.91251800      17.13448900      13.46445600      -0.20180400      -0.64407893      -0.45983839
O       11.60957800      13.82425300      10.44798800       2.31782916       1.48121619      -0.37100348
H       11.87328800      13.98031500       9.51200200      -0.65958227      -0.39192835       0.63764088
H       12.40787700      14.29398600      10.88671000      -1.58510934      -0.86767915      -0.17264085
O        9.11491900      12.31222400      12.77621800       0.77239010      -0.77471293       0.20019768
H        8.47654700      13.00968800      12.77337100      -0.38398251       0.85689794       0.14545256
H        9.92760500      12.68214900      13.17490500      -0.57089329       0.04878823      -0.33082762
27
Properties=species:S:1:pos:R:3:REF_forces:R:3 REF_energy=-18719.386079455653 charge=0 spin=1 external_field="0.0 0.0 0.0" config_type=ORCA_DFT source_file=C_DFTprod_cutcluster_0096.out orca_step=0 pbc="F F F"
O       12.00000000      12.00000000      12.00000000       1.59906492       0.27391075       2.72378951
H       12.21101300      12.57645900      12.80419100      -0.82232828      -0.99180122      -2.04731155
H       11.25374600      12.33693100      11.53627200      -0.80220970       0.71229883      -0.23674627
O       13.33596900      10.94135700       9.98622400      -0.04622067       0.58826901       2.17732386
H       13.96007400      11.68828600       9.86496400       0.39065185      -0.37058372      -0.91339197
H       13.15813900      11.14281200      10.96068300      -0.43022170      -0.78890373      -1.63279014
O       14.09081000      15.27660600      13.70163100      -0.38232199      -0.02166443       0.46538529
H       14.93729700      15.01416800      14.08320200      -0.25516077       0.04124780       0.23204100
H       13.43927500      15.34814700      14.42550800       0.76765464      -0.09967124      -0.42146349
O       11.97670100      12.05077100       7.70315600      -2.41897904      -0.28302068      -4.22401562
H       12.19421000      11.97987900       8.59008900       0.30222934      -1.06283088       2.77526588
H       11.19455900      11.46801200       7.41553700       2.08442146       1.24831089       1.35674250
O       11.43608800      14.81562800      11.95633000      -0.73114194       0.11529938      -0.34769781
H       10.81032300      15.01859100      11.24918400       0.03691585      -0.33534253      -0.32958064
H       11.17897200      15.49052000      12.58083800       0.20153054       0.35114772       0.66096202
O       15.06005000      12.90258500       9.70093100      -1.84295542       0.86910590      -1.00534240
H       14.48992600      13.54949300      10.16577800       0.28195043       0.42806151      -0.43742300
H       15.71479500      12.72276000      10.32563200       1.91311769      -0.56816638       1.47497592
O       13.91783600      15.36855400      10.87248600      -0.98393395      -0.60959092      -0.24336306
H       14.31039600      15.28748700      11.74379900       0.11859075       0.20617662       0.29649578
H       12.97058100      15.16535900      11.08977100       1.09362596       0.32046505      -0.23065070
O       12.86849000       8.47057700       8.77102900       1.42365186      -1.40005217       0.61969818
H       13.09409800       9.36038700       9.13252800       0.21118884      -0.75440785      -0.02482493
H       13.57297900       7.79198100       9.06029300      -1.66000979       2.08638856      -0.60345117
O       15.00291400      10.29005300      13.28707600      -1.48182333      -0.75627010       0.65640094
H       14.87356700       9.83772400      12.43942800       0.10912513       0.17433119       0.12620801
H       14.24113800       9.93984600      13.83278300       1.32358745       0.62729265      -0.86723614
27
Properties=species:S:1:pos:R:3:REF_forces:R:3 REF_energy=-18719.427714073325 charge=0 spin=1 external_field="0.0 0.0 0.0" config_type=ORCA_DFT source_file=C_DFTprod_cutcluster_0095.out orca_step=0 pbc="F F F"
O        9.46521800      10.72971300      13.65473900      -0.18327977      -1.52580339      -0.74794857
H        9.46992600      11.49813400      13.11815600       0.06691600       1.00654336      -0.85038297
H        9.53236700      11.04433000      14.52932700       0.10547787       0.51429642       1.67448711
O       12.60096800      11.25621500      12.33048600      -0.72140558       2.01663905      -0.84132770
H       12.00000000      12.00000000      12.00000000       1.30045035      -1.34099783       0.89796232
H       13.23217400      11.57595900      13.00701300      -0.55529415       0.09251277      -0.08238571
O       15.31886000      12.73828100      11.44977200      -0.63681911      -0.56862085       0.00317506
H       14.76804300      13.52241900      11.45172300       0.10463372       0.40045043       0.00880608
H       14.64092900      12.03953700      11.36622100       0.45985922       0.09058876       0.00801459
O        8.83205000      11.38349900       9.93183900      -0.55935711      -0.72580926       0.06410794
H        9.12245700      12.11121400      10.49668700       0.11532406      -0.41215481       0.07219787
H        8.69754800      10.56274000      10.45940500       0.31182516       1.02352056      -0.23276517
O       11.18131000      10.35717500       9.03574000       1.55664259      -0.48347727      -0.59092949
H       11.92495600      10.97309300       9.02029000      -0.30583917      -0.08647315      -0.10784868
H       10.37500000      10.85554800       9.07720500      -0.97417563       0.70136398       0.22397833
O       10.46792300      13.41940900      11.09330400      -0.24017545      -0.40787588       0.60998388
H        9.90571400      13.89475000      11.73082600       0.63503512       0.25683970      -0.61352244
H       10.97836700      14.02219800      10.54306100      -0.34450826       0.30550467       0.21405803
O       12.64475700       8.84712200      14.78228000       2.07414867       0.73630708      -0.53134432
H       12.79275400       9.75998900      14.44100600      -0.75066093      -1.13062059       0.59720051
H       11.75848400       8.68752500      15.03154100      -1.44560661       0.21262269       0.03862733
O       11.39755800       9.10432500      11.42488900      -0.30310660      -0.32293799       0.81014089
H       11.44739400       9.52244100      10.55642400      -0.02707130       0.12459485       0.06826285
H       11.62591700       9.77896700      12.09625300      -0.08516584      -0.68016040      -0.80241847
O       14.20033700      11.16888700      14.43739100       1.27386889       1.21477861       0.49734781
H       14.59966600      11.93842700      14.90871600      -0.65524471      -0.77370917      -0.36286753
H       14.98832600      10.76085600      14.04839700      -0.21647158      -0.23792224      -0.02460952
27
Properties=species:S:1:pos:R:3:REF_forces:R:3 REF_energy=-18720.05333767982 charge=0 spin=1 external_field="0.0 0.0 0.0" config_type=ORCA_DFT source_file=C_DFTprod_cutcluster_0407.out orca_step=0 pbc="F F F"
O       11.70711000      15.32774700      12.19039100      -2.22991614       0.68690944       1.77188210
H       11.70616300      16.11973000      12.81884000       0.11778168      -1.64390579      -1.28171101
H       10.82973900      14.84952700      12.42753100       2.06849631       1.05838230      -0.44040291
O       11.97279200      14.50205400      15.77471900      -2.06264679      -0.69807276      -1.09888489
H       11.08435500      14.26953000      16.13270100       1.02428351       0.41396410       0.54957627
H       11.68331600      14.25284000      14.85581000       1.08388245       0.29888434       0.64131093
O       13.73387700       9.53388000      12.23151400       0.38785562      -0.67201252      -0.65803955
H       12.96644400      10.10790300      12.24729700      -0.07220949       0.50281248       0.57340464
H       14.08290600       9.40618600      13.11606300      -0.41517802       0.24381922       0.21369597
O       15.61502300      13.16879600      12.37337100       0.10353262      -0.23596368      -0.10433414
H       15.21776100      13.70759900      11.64959200       0.47839908      -1.09443051       0.46942552
H       15.96499000      12.29149000      12.08253300      -0.53854907       1.13758468      -0.31181082
O       12.00000000      12.00000000      12.00000000      -0.11540516       0.39475698       1.27431050
H       12.61478900      12.71040800      11.80871300       0.64604495       0.48614499       0.27062061
H       11.93003100      11.56390100      11.16360300      -0.46285301      -0.67881510      -1.30504172
O       13.77751800      14.39190500      10.60951400      -1.55683877       0.20616891      -0.75713193
H       13.52390900      14.00246700       9.73542900       0.26834662       0.80576353       1.19209834
H       13.00029400      14.94605900      10.94828100       1.15894155      -1.04003085      -0.51973209
O       10.27879400      13.33941200      13.71120500      -2.30249607      -0.67727254       1.26116163
H       10.73875100      12.82043200      13.03658500       0.13876749      -0.76039173      -0.10421803
H        9.51549800      12.78451200      14.11254800       2.14530786       1.31435405      -1.32433219
O       16.32926700      10.29941900      11.51778500      -0.73015293      -0.44222556       0.76335323
H       15.35530200      10.07961700      11.53160300       1.08550868       0.21584968       0.07435292
H       16.66142800       9.92472200      12.36178000      -0.23010131       0.35295906      -0.83564983
O       11.78743200      10.92631800       9.55388400       0.91211367      -1.66367408      -0.53759632
H       12.33502200      10.12275200       9.28520100      -1.00618006       1.75662347       0.39040209
H       11.98994000      11.64335000       8.94343900       0.10326482      -0.26818217      -0.16670926
27
Properties=species:S:1:pos:R:3:REF_forces:R:3 REF_energy=-18719.55057958156 charge=0 spin=1 external_field="0.0 0.0 0.0" config_type=ORCA_DFT source_file=C_DFTprod_cutcluster_0260.out orca_step=0 pbc="F F F"
O       12.00000000      12.00000000      12.00000000       3.70638983       0.58095330       1.57922629
H       11.11041700      12.02458100      12.20104500      -3.23401391       0.01908319       0.08828984
H       12.39037800      12.26539000      12.90387200      -0.30744601      -0.52178018      -1.90388866
O       12.08761900      15.47748300      14.57084000      -1.06208526      -0.46052045       0.92180226
H       12.30703800      15.50662700      15.51959300       0.17628899       0.34529142      -0.64137839
H       12.82706600      15.76238600      14.05378400       0.80054789       0.56410887      -0.24681029
O       11.06335400      15.84903400      11.11107600      -0.54535077       1.71074214      -1.54502547
H       10.28388100      15.82027500      11.64574800      -0.77129964      -0.62564396       1.35691646
H       10.67103100      16.51666400      10.47584500       1.26387496      -1.01914290       0.43900407
O       14.42358600      14.01437900      11.25062400       0.28064925       0.56675243      -0.13628246
H       13.57717500      13.55498100      11.18674300      -0.18376822      -0.02867356       0.42627341
H       14.46243400      14.54176000      12.06860400      -0.19802139      -0.69532554      -0.49692501
O       10.79903700      13.43794400       9.49161100      -0.44730066      -0.55508795      -0.99428711
H       11.27038500      14.12590600       9.95744400       0.36940585       0.48735830       0.12747777
H       11.17652800      13.44375400       8.58884300      -0.22007215       0.09794346       0.87734048
O        8.06805900      14.98656000      11.15706600      -0.67928479      -0.39381240      -0.30158868
H        8.74966500      14.53317700      10.65210000       0.37336540      -0.18753931      -0.21921325
H        7.25421200      14.54707300      10.83864300       0.53108742       0.46914512       0.37755295
O       15.75863200      13.89303300      14.20446300      -0.64258733      -1.40759414      -0.36432082
H       14.86676700      13.42780500      14.27897900       1.32126163       1.57021529       0.18636216
H       15.80483300      14.82695600      14.40732600      -0.73805018      -0.06636326       0.27507170
O       12.98901000      15.22084300       8.80338700       1.00308687      -0.02816808       0.55275272
H       12.88111100      16.17542700       8.70591200       0.21847138      -0.24888656       0.11914277
H       13.76654300      15.07768100       9.41122100      -1.07356914       0.23862606      -0.64731970
O       12.97614800      12.99647600      14.45976900       0.77325800       2.79095146      -1.63620497
H       12.44736700      13.86623400      14.45683900       0.66129246      -1.28511053       0.04758295
H       12.51817900      12.38599600      14.96367400      -1.37613041      -1.91752220       1.75844896
27
Properties=species:S:1:pos:R:3:REF_forces:R:3 REF_energy=-18719.35937390671 charge=0 spin=1 external_field="0.0 0.0 0.0" config_type=ORCA_DFT source_file=C_DFTprod_cutcluster_0209.out orca_step=0 pbc="F F F"
O       14.39152700      13.79429300       9.23595000      -0.43888426      -0.25594696       0.25360309
H       14.45834100      13.41607700      10.10891900       1.08095937      -0.05912550       0.89436725
H       13.50553700      13.45592000       9.09891200      -0.66019548       0.25713301      -1.15120530
O       10.81008000      11.00197800      14.38317800       0.30321767      -2.14530313      -0.84427059
H       11.24015000      10.23788300      13.92009400      -0.13322861       1.12829873      -0.00492063
H       10.45111800      10.46665000      15.09830000      -0.43535280       0.51267240       0.57998883
O       13.15909000       8.59494800      14.29794500      -0.47694085      -0.17627819      -0.68081444
H       13.45820600       9.15641700      13.57017500       0.15216396      -0.02504975       0.39857542
H       13.52301100       8.93757600      15.11134100       0.27348312       0.32505133       0.18083506
O       10.88809000      13.79919200       8.74661000      -0.57584436      -1.59082006      -0.47666914
H       11.24417100      13.92087100       9.62136800       0.09868368       0.11364652       0.69730123
H       10.52039400      12.87583500       8.79808700       0.50172783       1.40851290      -0.08704810
O       12.67012400       8.73574100      10.68627400       0.83995818      -1.33840446       1.61283467
H       12.17673300       8.39240300       9.95317800      -0.48813107      -0.06785810      -0.74112831
H       12.87668300       7.90277400      11.20052700      -0.28385233       1.42797389      -0.74363868
O       11.94259100      13.04526700      15.68414100      -0.48755638      -0.95952081      -0.74702755
H       12.64099200      13.41839200      15.13914000       0.13002065       0.30903876      -0.06963617
H       11.55232500      12.33845400      15.09028600       0.62336858       1.08601560       1.07601771
O       15.45335300      11.98046800      11.76320200      -0.85700197      -1.82173656      -0.87650266
H       15.32758300      11.10744800      11.28198200       0.03189670       1.57425316       0.85413272
H       16.37010600      12.17153600      11.59124800       0.62256316       0.34233619      -0.00681692
O       13.66279400      14.15065400      13.44252000      -0.79368876       2.18291920      -1.96075000
H       13.43224100      14.89374500      12.75525900       0.64796175      -2.17117625       2.04517635
H       14.09370400      13.47401100      12.91296500       0.29307477      -0.14948323      -0.15094706
O       11.19927200      12.35195600      11.52741700       1.83147215      -0.67218299       0.92152504
H       12.00000000      12.00000000      12.00000000      -0.54622376       0.11742383      -1.36617140
H       10.81401700      12.65580300      12.34324400      -1.25365112       0.64761059       0.39318958
27
Properties=species:S:1:pos:R:3:REF_forces:R:3 REF_energy=-18719.413550080524 charge=0 spin=1 external_field="0.0 0.0 0.0" config_type=ORCA_DFT source_file=C_DFTprod_cutcluster_0061.out orca_step=0 pbc="F F F"
O       11.08751700      12.17533100      11.71331500      -0.72947247       0.57454940       0.39699224
H       10.82524600      11.86187700      10.82467300       1.05410836      -0.37840106       0.68139021
H       12.00000000      12.00000000      12.00000000      -0.32347771      -0.44078117      -0.71281670
O        9.05997500      13.85643500      15.50710600      -2.55153073       2.28936802       1.71981376
H        8.09484300      13.66203700      15.56228700       1.20958874       0.25169744      -0.04992800
H        9.41217900      13.15987300      15.03939000       1.36709720      -2.60232678      -1.65122104
O       12.63321600      12.99844100       9.24101700      -0.22634282      -0.69331411      -0.23541665
H       12.14025700      12.15340100       9.18020800       0.44266522       0.73846891      -0.40417467
H       12.33429200      13.30439200      10.09385900       0.14339547       0.43070841       0.44938583
O       12.16868200      11.09391600      16.45121000       1.10487474      -0.19332656      -0.07947733
H       11.59087900      11.07582200      15.67768500      -0.04701499       0.07784838      -0.23420628
H       13.06911300      10.94561200      16.09033300      -1.00304177       0.14388439       0.33747140
O       10.87000800      10.88540600       9.19562400      -2.36842611      -1.76111488      -0.87504710
H       11.32110900      10.02218100       9.01559200      -0.66365392       1.00637742       0.27774185
H        9.87679500      10.73012200       8.96691900       2.72049516       0.36400236       0.46336527
O       10.93964700      15.30409400      11.56507100       0.23246713      -0.83740790      -1.12086623
H       10.94344800      14.33846100      11.27699100      -0.06516533       1.88471739       0.47247968
H       11.07736200      15.88703300      10.78168700      -0.24504790      -1.06372665       0.72109041
O       14.01268100      14.76462100      12.50146000       0.24705182       0.38971730       1.91417817
H       13.97878500      15.34203100      13.33327600      -0.13799153      -0.95381532      -2.27194463
H       13.85883600      15.28453700      11.70548800      -0.14506520       0.28086090       0.46600251
O       10.35858500      10.81853500      14.26661900      -0.45967163      -1.07961730      -0.61254249
H       10.17064400       9.84348000      14.31915600       0.25698307       1.55233306      -0.30323778
H       10.37064000      11.08672600      13.31477000       0.12751001      -0.32625291       0.82650359
O       13.77541000      11.63422200      13.27211100       0.44802618       1.38797091       0.33535215
H       14.43370800      11.60546200      14.00409500      -0.74189218       0.04569133      -0.87887944
H       13.72080300      12.60510600      13.04586500       0.35353124      -1.08811099       0.36799128
27
Properties=species:S:1:pos:R:3:REF_forces:R:3 REF_energy=-18720.54863886981 charge=0 spin=1 external_field="0.0 0.0 0.0" config_type=ORCA_DFT source_file=C_DFTprod_cutcluster_0008.out orca_step=0 pbc="F F F"
O        8.40734300       7.77986100      11.45650800      -0.92136990       0.93625860      -1.51429107
H        8.04423000       7.44241000      10.60646200       0.50632265       0.13151867       1.08228549
H        8.79955300       7.06470200      11.92271600       0.44726323      -1.07995777       0.37714996
O        8.09893300      12.07424800      15.31086900      -0.06676651      -0.32868893       1.07495245
H        8.08121100      11.12568900      15.59857100       0.13077439       0.52085659      -0.59487238
H        7.45971300      12.51513900      15.88871000       0.05869994      -0.04027675      -0.25677121
O        8.13007600       9.51732000      14.60650700      -0.27286863      -0.97485266       0.51243653
H        8.06488600       8.53301600      14.75786200       0.57480425       1.83674420      -0.68399988
H        8.82945200       9.76078700      13.96132100      -0.10351329      -1.03312923       0.07125988
O        8.68277300      15.06537300      12.19681800       1.70428651       1.27309221       1.77200063
H        8.11357700      14.31906600      12.12655300      -0.76266608      -1.31252049       0.01948351
H        9.04768100      15.02469800      13.14162400      -0.87390985      -0.27336377      -1.76199132
O        7.44220700      12.23150100      12.66471800      -0.04739058      -0.30924578      -0.24809651
H        7.69920100      12.00226000      13.58636400      -0.31903922      -0.05056188      -0.72283306
H        7.25244400      11.41718700      12.16015700       0.27020373       0.55527456       0.69760251
O        9.98970800      14.25268800      14.75085900      -0.94774819      -1.13762170       0.89803935
H        9.48945000      13.46308300      15.17547200       0.99525159       1.74794333      -0.95799424
H        9.92242400      15.01218100      15.34951300      -0.07309559      -0.51374939       0.03730229
O       10.43249400       9.57638400      12.72213700       1.25770976       2.46447368       1.54622438
H       10.97513900      10.45246400      12.72310000      -1.15248741      -1.90015784      -0.24957001
H       10.42176600       9.30406500      11.82186000      -0.22419682      -0.28826727      -1.16175038
O       12.00000000      12.00000000      12.00000000       0.31542579       1.20835980       0.18580778
H       12.96670800      12.02459100      12.09125100      -0.40145465      -0.23319239      -0.05594798
H       11.78441000      12.97631400      12.03437900       0.06806837      -0.99619585      -0.01294545
O       11.63072700      14.94885300      12.08352000       0.06543669      -0.62553638      -1.41783890
H       11.57705700      15.16558000      12.99516700      -0.09410639       0.20903955       1.34886170
H       10.70311800      14.86537500      11.80493200      -0.13363387       0.21375690       0.01549589
27
Properties=species:S:1:pos:R:3:REF_forces:R:3 REF_energy=-18719.45937948182 charge=0 spin=1 external_field="0.0 0.0 0.0" config_type=ORCA_DFT source_file=C_DFTprod_cutcluster_0227.out orca_step=0 pbc="F F F"
O        8.41864500      12.01392100      10.34747700       0.33268226      -1.49751992       0.30111420
H        8.70957300      11.06485500      10.27401900      -0.39617535       1.49412303       0.01464418
H        9.11107100      12.44731100      10.85965000       0.12637122       0.01442343      -0.41121903
O       11.60056100      10.38510600      12.52339700       1.14549807       0.52906437      -0.91533851
H       10.72765700      10.25518300      12.84570700      -1.25011154      -0.63123991      -0.09422544
H       11.80543200       9.86996800      11.71941100      -0.16233330      -0.17011073       0.21662836
O       12.60938800      10.07294500      15.05335700      -0.80703304      -1.06878550      -2.13371790
H       12.30317100      10.86250500      15.46133100      -0.32110407       1.30173245       0.94433351
H       12.10578100      10.10472500      14.17885100       1.57836225      -0.28466084       1.70222186
O        9.34495800      12.99879400      13.88821100      -0.32459882      -0.65983727      -1.83159927
H        9.18736300      12.22453700      13.27730200       0.02744663       1.18302507       1.06606173
H        9.04300700      13.76359800      13.35321900       0.11675463      -0.51077863       0.60508418
O       12.22025200      12.98258700      11.91224500      -0.92142662      -1.04899289       0.55871541
H       12.00000000      12.00000000      12.00000000       0.49278497       1.16654975       0.18012656
H       11.45261300      13.41124600      12.32044500       0.29147226      -0.03705577       0.23967275
O       13.18192000       9.41098300      10.06197000       1.44134558       0.85398735      -0.13472720
H       14.13779300       9.32072000      10.38801200      -2.06809038       0.49253532      -0.86942246
H       13.15885600      10.14194200       9.37896800       0.38291514      -1.19118241       1.23898473
O       11.60703800      12.85457300      15.65531400       1.56313658       0.54951930      -0.43796385
H       12.42627300      13.28385900      15.26007100      -1.83514513      -0.83782442       0.52942088
H       10.88433300      12.86814300      15.00760300       0.33096842       0.33012576      -0.02837110
O       15.00659800      12.78760800      11.87052900      -1.44293112      -0.56257402       1.04224585
H       14.16318000      13.07053400      12.31686800       1.10456066      -0.46242857      -0.81947579
H       15.41127400      13.58967600      11.58987400       0.51287470       0.94506519      -0.34757764
O       11.49922800      13.56608100       9.45097600      -0.06232319       1.00205205      -0.59645422
H       11.71090000      13.37282000      10.39220700       0.49103400       0.54970313      -0.74007914
H       11.79644100      14.47873200       9.20044500      -0.34693471      -1.44891537       0.72091727
27
Properties=species:S:1:pos:R:3:REF_forces:R:3 REF_energy=-18719.47248480155 charge=0 spin=1 external_field="0.0 0.0 0.0" config_type=ORCA_DFT source_file=C_DFTprod_cutcluster_0085.out orca_step=0 pbc="F F F"
O       12.40925600      15.86547700      15.47139500      -0.36904121      -0.95228027      -1.11313354
H       12.18776100      15.31168400      14.67618000       0.20201077       0.77855468       1.01106814
H       12.97070700      16.55164500      15.10612600       0.10715937       0.17200424      -0.00900945
O       12.00000000      12.00000000      12.00000000      -0.78696496       0.91570550       1.11753630
H       11.53585700      12.73247800      12.47869100       0.28728378      -0.11555418      -1.09393511
H       12.11033500      11.41435600      12.75860400       0.43901456      -0.71077247      -0.37523798
O       13.46782900      10.43603100       8.42973400       2.63658221       0.19978486      -1.31840117
H       14.19726600      10.64070100       7.69361600      -2.30603314      -0.80961391       2.74785679
H       13.93568900      10.06499900       9.22627400      -0.43552167       0.67290912      -1.42681283
O       13.28365900      14.56935200      10.45237300       0.19077618       0.07178572      -0.35908040
H       13.57249300      13.93585000      11.11694300      -0.10733817      -0.18715678      -0.14860273
H       13.51150600      14.18577400       9.58844600      -0.23435715       0.09001762       0.53030585
O       11.10048900      13.10968800       7.53208100      -1.16684121      -1.12493979       0.58983430
H       11.40547200      12.26753000       7.91741800       0.40534380       0.45365088      -0.24327929
H       10.14872400      13.00610700       7.78273400       0.89330883       0.75507685      -0.26087602
O        8.29920800      13.29298900       9.43296100       0.99548607      -0.94660652       0.86328436
H        8.90048100      12.61075300       9.87792000      -1.06860064       1.29773578      -0.84004241
H        7.90967700      12.74165100       8.75261300      -0.33478980       0.04887431      -0.19659325
O       12.77101400       9.54069100      13.23050000      -0.38178514      -0.45838351       1.03116075
H       12.47700600       9.17622300      14.08662500      -0.12261561       0.42145069      -0.45589025
H       13.51783800       8.97164000      13.05567000       0.48235328      -0.05207533      -0.43584974
O        9.85574200      11.18594500       9.68965000       1.96615163      -0.82142248       0.88731008
H       10.71418000      11.15210700      10.23491800      -1.67086401      -0.00657637      -1.00643568
H        9.76123700      10.34461900       9.20946200       0.25362089       0.44006450       0.45139514
O       10.67491900      14.57800500      12.99725600      -0.86646219       0.23695422       0.07498854
H        9.93790500      14.63688200      13.62599600       0.38910255      -0.21035148       0.16512397
H       10.25245900      14.99390500      12.22804900       0.60302118      -0.15883587      -0.18668416
27
Properties=species:S:1:pos:R:3:REF_forces:R:3 REF_energy=-18719.515461911597 charge=0 spin=1 external_field="0.0 0.0 0.0" config_type=ORCA_DFT source_file=C_DFTprod_cutcluster_0266.out orca_step=0 pbc="F F F"
O       12.18123200      15.30650200      14.14139700       0.33434865      -0.44879180       0.29906874
H       11.52098800      15.73645600      13.59717500       0.08033428      -0.10391412      -0.43599480
H       12.63247400      14.60609300      13.63981400      -0.40607852       0.53794887       0.11495079
O       15.35698900      13.20025000      11.92581900      -0.54092940       0.73825818      -0.02953303
H       14.63903600      13.78922300      11.64503300       0.52082707      -0.01223454       0.14864556
H       15.14328100      12.38408000      11.46028700       0.04969115      -0.48456068      -0.01828893
O       14.77488700      10.85338700      10.56774000       0.08208916       0.69354104      -0.69951135
H       14.04537400      10.28267500      10.78874500      -0.22100515      -0.53478986       0.64844070
H       15.56016700      10.31579100      10.52790700       0.34762670      -0.32146521       0.08312012
O       12.00000000      12.00000000      12.00000000       0.10775345       1.92188644       0.18666277
H       12.22937500      12.84813400      11.56563600      -0.21077741      -0.92948826       0.13614429
H       12.09561900      11.27729200      11.37849300       0.11131366      -0.44936361      -0.84554904
O        9.92946000      12.63877700       9.31679100       0.20011592      -0.59612975       1.34561250
H       10.06145900      11.86175700       9.91343800      -0.25108362       0.74490654      -0.84736187
H        9.79565900      13.35047400       9.97694000       0.11538299      -0.24004721      -0.43672047
O       12.16612300       9.77929700      10.48875200       0.37775124      -0.20846681      -1.06669067
H       12.57304400       9.89921100       9.58866900      -0.95607275      -0.60560740       1.07891457
H       11.70452700       8.91970300      10.57314200       0.45808011       0.75628404      -0.37585104
O        9.75175900      14.65572100      11.49529600      -0.74690537      -0.72190797       2.44138085
H        9.74012600      14.26831400      12.43885900       0.24514859       0.68941468      -2.13682014
H        8.82498000      14.95236400      11.42832200       0.47902895       0.01059295      -0.23297971
O        9.84314800      10.74669900      12.83029200       0.74838303       2.11200488       2.83879779
H       10.53963700      11.39301300      12.50418900      -0.98594913      -0.95430250       0.19704077
H        9.81590400      11.08967100      13.81556300      -0.21630975      -1.35445591      -2.77825736
O       13.68340600      10.45901500      13.47886900      -1.00415742      -0.42428409      -0.11693676
H       13.12744900       9.69553300      13.71645500       0.46971168       0.30001706       0.05139301
H       13.02038700      11.05879900      13.06920200       0.81168195      -0.11504489       0.45032258
27
Properties=species:S:1:pos:R:3:REF_forces:R:3 REF_energy=-18719.671554764107 charge=0 spin=1 external_field="0.0 0.0 0.0" config_type=ORCA_DFT source_file=C_DFTprod_cutcluster_0055.out orca_step=0 pbc="F F F"
O       12.91504600      14.47177700      12.59787700       1.62679145      -1.27743810       0.62389720
H       12.34753300      15.19504400      12.46530300      -1.06590849       1.60778035      -0.10241625
H       13.55651500      14.70554900      13.29369500      -0.53971470      -0.06032590      -0.49014959
O       10.54160900       9.84826400      13.13369200       2.35789625      -0.23052795       0.98431221
H       10.89445300      10.64612600      12.72906400       0.09006102       0.23043653      -0.24541382
H        9.62124500       9.92542200      13.04810200      -1.90956921       0.12754730      -0.45808850
O        9.81945700      11.06948200      16.21227800       0.97962591      -0.11287488       1.85451746
H       10.19295700      10.97041200      15.33005800       0.42663244      -0.33822952       0.16498796
H       10.51342900      10.86594200      16.92505700      -1.40395824       0.33611551      -2.12859785
O       12.00000000      12.00000000      12.00000000      -0.22909796       0.09815398       0.44080035
H       12.25153400      12.90176100      12.24120600       0.28819312       0.25785020       0.64060089
H       11.76271700      12.13791200      11.09392500      -0.22718562      -0.41570180      -1.26020379
O       14.19514600      10.42278700      11.98444800       0.73838962       0.48491251       1.52570111
H       14.56355200      10.54698700      12.90572800      -0.58081554      -0.29990399      -1.64082946
H       13.38801500      10.98020700      11.97354300       0.20625715      -0.20723515      -0.01941209
O        8.21390100      10.34934300      11.75448400      -0.82365255       0.00596635       1.54101805
H        8.24684300      10.06446600      10.83623600      -0.49705588      -0.58833550       0.39162290
H        7.59292800       9.84226200      12.35692600       0.89538654       0.60524493      -1.96059214
O       13.28034800      11.95408000       8.97839300       1.60896557       1.65796412       0.11920227
H       13.26096800      12.84230000       8.53337500      -0.16450197      -1.27137672       0.46945689
H       14.20082700      11.97194500       9.37400700      -1.55004180      -0.38201058      -0.46653704
O       13.91944900       7.61765400      12.54862500       0.17869544      -0.98859562      -0.24001126
H       14.04349900       8.43622000      12.06580600      -0.07984387       0.44627381       0.19988580
H       13.84800100       7.82656500      13.48344200      -0.16539949       0.37292893      -0.01337349
O       13.02592900       9.03283200      14.96627200      -1.86193998       0.72909282      -1.41378160
H       12.37237100       9.55557600      14.39279000       0.88967025      -1.43926658       0.91958761
H       13.60655800       9.71006600      15.27147600       0.81212058       0.65155492       0.56381617
27
Properties=species:S:1:pos:R:3:REF_forces:R:3 REF_energy=-18719.54546846129 charge=0 spin=1 external_field="0.0 0.0 0.0" config_type=ORCA_DFT source_file=C_DFTprod_cutcluster_0027.out orca_step=0 pbc="F F F"
O       14.40528500      11.78273500      10.93359000      -1.19671589       0.99380632       0.58321320
H       14.74428600      12.64383700      10.62958300      -0.12503646      -0.59239291       0.26172922
H       13.56830600      12.02431800      11.46577000       1.73885880      -0.46158859      -0.93590538
O       13.23939600       9.10899800      13.69377900       3.11393814      -1.53369195      -0.53821503
H       12.49313900       9.61358600      13.79707900      -3.33935886       1.65139829       0.56348178
H       13.87365600       9.75443600      13.36474600       0.28791899      -0.15366431      -0.08817018
O       10.39993300      14.66228700      13.15698100      -0.84579736      -0.05025689       1.85995607
H       10.83912600      15.28096400      13.79969900      -0.68655072      -0.88752128      -0.98774648
H        9.64019000      14.25286700      13.67862000       1.44825398       0.77976844      -0.98373726
O        8.85029000      11.90390400      12.40117300      -0.97565716       0.07437024       0.52974911
H        7.86359800      11.85773400      12.38219600       1.36567908       0.21454546      -0.19235561
H        9.15689100      12.55706300      11.76047200      -0.39204621      -0.17599213      -0.41326239
O       10.80286300      10.31803500      10.12705800       0.65379615      -0.34133151       0.21442771
H       10.04351100      10.02270300       9.58914400       1.01934082      -0.36515010       0.49353995
H       11.51931100       9.64444400      10.28172000      -1.49198937       0.66067468      -0.82570552
O       14.66793200      13.69122400      14.02588000      -0.50182091       0.18298023       0.10693219
H       15.24178900      13.74321400      14.79481300       0.04974087      -0.02391723       0.04935547
H       13.78543400      13.92152100      14.35934400       0.44105350      -0.16450120      -0.16740053
O       10.07667500      13.52244000      10.16669200       1.45231390      -0.00156637      -1.79451835
H       10.84458100      13.66135100       9.50979500      -1.83051714      -0.34560854       1.71452495
H       10.24171100      14.12163300      10.89367300       0.38180828       0.56621702       0.28610030
O       12.00000000      12.00000000      12.00000000      -1.12897040       0.27763340       0.54118507
H       11.33513600      12.31281200      12.64831400       0.74448092      -0.04963001      -0.47434651
H       11.47293000      11.82668700      11.19779200       0.06690119      -0.14812574       0.12944631
O       10.39146400       9.58376500      13.30257700       0.63638958       0.39507009      -0.58360210
H       10.88088900       9.51603900      12.44612400      -0.78404845       0.24986291       1.02826404
H       10.15491100      10.52950400      13.37167700      -0.10196543      -0.75138835      -0.37693990
27
Properties=species:S:1:pos:R:3:REF_forces:R:3 REF_energy=-18719.785385760635 charge=0 spin=1 external_field="0.0 0.0 0.0" config_type=ORCA_DFT source_file=C_DFTprod_cutcluster_0415.out orca_step=0 pbc="F F F"
O        9.24477100      11.00453100      13.21645500       2.11580841       0.88468283       3.04461569
H        9.46578300      11.00727900      14.22889700      -0.96426686      -0.18638530      -2.96205849
H        8.46063300      10.50784500      13.08323300      -1.20207752      -0.76026349       0.01558227
O       15.76912900      10.54854700      11.93539200       0.17645169      -0.76899187      -0.08803622
H       15.09751100      11.07774900      12.37986000      -0.25938602      -0.21501664      -0.23639300
H       15.40158800       9.65846600      11.76358700       0.11316269       0.94728621       0.20616243
O       11.28343200      11.66918800      11.39958600       0.73649096       0.26761941       0.68939226
H       10.77099300      11.08326100      11.97267500      -0.21040162       0.03471313      -0.08957045
H       12.00000000      12.00000000      12.00000000      -0.53756336      -0.43564719      -0.82234226
O       12.32879700      11.57307800       8.51108700      -1.33679654       2.17025420       0.02106412
H       11.79703800      12.43904800       8.69598300       1.55156708      -2.18445975      -0.27756125
H       12.15775600      11.02642500       9.28035800      -0.08991935       0.06680205       0.25078984
O       13.48748700      12.04048200      13.13047700      -0.27337215      -1.51560213       0.99433658
H       13.77664700      12.91017800      13.36871500       0.35919995       0.93006116       0.23882059
H       13.48386000      11.50828000      13.96602400       0.01973533       0.77782906      -1.02527518
O       11.35848100      14.09197200       9.71802500      -0.14489818       0.24830935      -0.27747142
H       10.93028500      14.93297800       9.50514400       0.16010389      -0.26454725       0.16482464
H       11.13318700      13.90644200      10.63818600      -0.15579734       0.08410871       0.11758257
O        8.89247200      11.96388100       9.70870800       0.88469589       0.55992275       0.20079489
H        9.85308700      12.11198300       9.96512700      -1.55597755      -0.04151571      -0.63096383
H        8.64008400      12.63708100       9.04776000       0.60906826      -0.54512091       0.43748419
O        9.18893900      13.88156500      12.05724000      -1.43153399       1.82185242      -1.54001984
H        9.42878600      13.01628500      12.31614700       0.30067053      -1.72475223       0.31198226
H        8.54433300      13.75079200      11.30429100       1.15979793      -0.05160251       1.29346507
O       11.94997600      15.34283800      13.36429100      -1.28550720      -0.36888725       0.99347567
H       11.09115300      15.82031100      13.46058700       0.95252694      -0.34855985      -0.41266435
H       11.77502500      14.57740300      13.95593900       0.30821816       0.61791085      -0.61801683
27
Properties=species:S:1:pos:R:3:REF_forces:R:3 REF_energy=-18719.816884786982 charge=0 spin=1 external_field="0.0 0.0 0.0" config_type=ORCA_DFT source_file=C_DFTprod_cutcluster_0012.out orca_step=0 pbc="F F F"
O       13.12012600      13.62303000      14.05528600       0.63564715      -2.04467195      -0.33029792
H       12.65888300      14.25070100      14.57377600      -0.67914646       1.46921413       0.38954915
H       13.63279800      14.00934600      13.35961100       0.23078465       0.83590442      -0.19370513
O       12.77301500      13.64454800       9.54681700      -0.35665549      -1.00894271       2.94342555
H       12.42336200      13.16790900      10.41286700       0.66331083       0.86118541      -2.43536710
H       13.41001600      14.24958800       9.96401400      -0.28281458       0.00195512      -0.43352155
O       15.63394200      12.50974600       9.22832300      -2.04587841      -0.77275956      -0.71386613
H       15.71176200      13.44443700       9.13302800       0.59123118       1.22401222      -0.00759283
H       14.69666200      12.41287700       8.87959100       1.24953674      -0.20119845       0.46491550
O       11.70960900       9.93996800       9.86302900      -0.19735856       0.42922971       0.39032825
H       12.21065300       9.13608400       9.77235000       0.69979216      -0.44539234      -0.22481013
H       10.85394800       9.62577000      10.15624000      -0.45130649       0.04117730      -0.02770009
O       15.20216700      10.89852800      11.32443300      -0.37467460       0.91742979       0.14359787
H       15.21560300      11.64666400      10.69129100       0.01190493      -0.43610510      -0.36796217
H       15.73913900      11.29123700      12.00951700       0.36292996      -0.40374329       0.64359689
O        9.64207200      12.24220100      13.32868200       0.93321035       0.10864465      -0.64941175
H        9.82481800      13.14300000      13.02881400      -0.58884556       0.25956127       0.32858146
H       10.41613600      11.86304400      12.84298700      -0.60442032      -0.15273691       0.67752111
O       12.00000000      12.00000000      12.00000000       0.98595617      -1.24310312      -0.13482074
H       12.75857600      12.02828900      12.61943200      -0.68636041       0.21688691      -0.16510350
H       12.06261000      11.08118100      11.63560400      -0.02623729       0.89730201      -0.27252595
O       11.09759100      13.54034700      16.02783900       0.36609606       1.13609133       0.80387655
H       10.38540300      13.07499400      15.62075100      -0.82556910      -0.64714029      -0.69072363
H       11.88868900      13.10125200      15.74436600       0.40115789      -0.72500271      -0.07502294
O       15.07054900       8.68539600       9.76840600       0.22568286      -0.11202272      -1.96556974
H       14.77034200       7.91570300      10.21072100      -0.32249437      -0.82638507       0.85492596
H       15.04647300       9.43784900      10.34163300       0.08452065       0.62060989       1.04768302
27
Properties=species:S:1:pos:R:3:REF_forces:R:3 REF_energy=-18719.88557544749 charge=0 spin=1 external_field="0.0 0.0 0.0" config_type=ORCA_DFT source_file=C_DFTprod_cutcluster_0244.out orca_step=0 pbc="F F F"
O       10.98286700      10.99745600       9.39876200       0.18160176       2.02295600       1.90310432
H       10.93819400      10.09650200       9.19930100      -0.13919090      -1.84503647      -0.92372920
H       10.89511600      11.54891500       8.63133200       0.14331561      -0.15630971      -0.89089683
O       14.20899400      14.08566400      11.72408300      -0.49953761      -0.44430301      -0.00296911
H       15.09025300      14.28732000      11.44412400       0.97836818       0.20717272      -0.01646344
H       13.97690200      14.78266700      12.33516400      -0.22385990       0.29697822       0.22847606
O        7.18229800      13.53489000      12.71089200      -1.40603106      -1.51262937      -0.58710297
H        8.04767900      13.56958300      12.25935100      -0.55231383      -0.41917464      -0.09627281
H        6.58956500      12.78439700      12.34621200       2.03222303       1.93641652       0.67935647
O       12.00000000      12.00000000      12.00000000       1.15824097       0.67192541       0.39728242
H       12.88499300      12.33256300      12.33216700      -1.53683214      -0.62576208      -0.86313030
H       12.09049700      11.74726600      11.06265600       0.01426875       0.03815132       0.30531744
O       11.52762400      12.92907300      15.17840000      -0.06803957      -0.24575773       0.16806068
H       10.57582800      12.95004200      15.30973800      -0.10065931      -0.18928468      -0.00216898
H       11.72453800      13.81028900      14.87201800       0.15241033       0.50944027      -0.18779344
O       13.80288000      13.64869800       8.90431200      -0.40051748       0.93995836      -1.93950323
H       13.77722900      14.61065300       8.71328600       0.04149679      -0.97979530       0.33234514
H       14.11354300      13.54741300       9.78270900       0.11888345       0.02406681       1.41566730
O       12.55586600      11.92056300       6.96391400      -0.77881122      -0.19232995      -0.51229815
H       13.06196500      12.44861600       7.55856600       0.32310855       1.25888954       1.21767110
H       13.24099700      11.32727100       6.69818400       0.37513833      -1.01999239      -0.69650994
O       10.01923800      15.89726100      13.78005700      -0.00825391      -1.20195667      -0.08599451
H        9.89327200      15.10682100      13.17235400       0.11570459       1.12529758       0.69288741
H        9.77100800      15.57985100      14.66300600      -0.03933891       0.24798626      -0.43057075
O        9.91737300      14.07015900      11.75749700      -1.24114276       0.52037440       0.35153580
H       10.59576500      13.40362200      11.88905200       0.88589197      -0.45854204      -0.53504825
H       10.03573900      14.65398200      11.00033400       0.47387636      -0.50873944       0.07874791
27
Properties=species:S:1:pos:R:3:REF_forces:R:3 REF_energy=-18719.48910339389 charge=0 spin=1 external_field="0.0 0.0 0.0" config_type=ORCA_DFT source_file=C_DFTprod_cutcluster_0050.out orca_step=0 pbc="F F F"
O        8.35389500      12.50419700      15.11590400       0.02669978      -0.12187472       0.41269855
H        8.64055300      11.59502800      15.22350000      -0.15437506      -0.12218690      -0.05843897
H        7.49505700      12.48380900      14.68358200       0.08778215      -0.08098143      -0.18866988
O       10.38794100      10.56975400       7.84261100       0.13288326      -0.15777072       0.53359301
H       10.79284000      11.43138000       7.99857200      -0.06653095       0.36296353      -0.31369765
H       10.55462700      10.14183800       8.69568900      -0.04057211      -0.08402895      -0.22238954
O       11.05592500      12.28299500      12.15828400       0.70063569      -1.41736798      -1.16360461
H       10.57998200      11.60144400      11.58789600       0.90113480       0.93946425       0.96717339
H       12.00000000      12.00000000      12.00000000      -1.45621010       0.68388063       0.39218510
O       11.20105400       7.57452500      11.44721300       0.88770439      -2.61380887       1.54788886
H       10.66846000       7.01438200      12.12950700       1.70900191       1.40205074      -1.84414337
H       12.13146500       7.15421000      11.35774900      -2.47873729       0.93574283       0.39030475
O        7.85951500      15.46213300      10.67231500       0.42428687       0.08746174      -0.42189204
H        8.25303900      14.64230400      10.99004200      -0.22849200       0.09698865       0.25104150
H        6.91893900      15.42083300      10.83819000      -0.15958319      -0.19997080       0.20100012
O       10.78589300      13.53617000       8.03709800      -0.68284371      -0.14501907      -0.10825646
H       11.28569400      14.31848600       8.25635700       0.32984310       0.30234350       0.15063035
H        9.86733800      13.84931700       8.00537300       0.34361644      -0.20524984       0.00279535
O       10.32344300       9.99448700      10.83952000       0.70201540       0.75725154       0.06649603
H       10.72821400       9.15604300      11.12925300      -0.33074118      -0.14778193      -0.05213689
H        9.45351500       9.84863600      10.50276200      -0.79222883      -0.56463101      -0.30672569
O        7.46506800      11.79883500      12.17656400      -1.55154096      -0.01902807      -1.48737038
H        7.05275500      11.71796200      11.27757000       0.15459577       0.19561453       1.30889611
H        8.36189900      11.60291800      11.96320900       1.37552908      -0.13382356       0.22926117
O        9.71834700      14.59500800      14.03958100       0.86872270      -1.43347564      -0.89089873
H       10.04675100      13.88627100      13.42057700      -0.24467761       1.27681594       0.28238963
H        9.58777600      13.99309300      14.78346300      -0.45791829       0.40642171       0.32187031
27
Properties=species:S:1:pos:R:3:REF_forces:R:3 REF_energy=-18719.89747127284 charge=0 spin=1 external_field="0.0 0.0 0.0" config_type=ORCA_DFT source_file=C_DFTprod_cutcluster_0450.out orca_step=0 pbc="F F F"
O        9.51351200      12.55083400      15.22047000       0.38435763       2.22442061      -1.03530902
H       10.21015600      12.53262000      14.53786000      -0.20751653      -0.18136332       0.50676581
H        9.38015200      11.71047200      15.58239100      -0.09826351      -2.04896312       0.47899105
O       15.12106400      13.79729700      12.39910300       1.23710242       0.93567629      -0.10755563
H       15.87095200      14.37313200      12.66709400      -0.70466235      -0.47831794      -0.56759133
H       14.74531000      13.54269200      13.23826800      -0.48744973      -0.52034555       0.58333985
O        9.17186500       9.71878000      11.62038300       0.76765618      -0.40836269      -0.97197564
H        9.54352600      10.52652700      11.95347600      -0.36918273       1.23785401       1.27513141
H        9.84958500       9.67863000      10.92673000      -0.46261657      -0.91202991      -0.28055921
O       13.64231900       9.34160200      12.33614500       1.94411430      -0.23384889       0.91130264
H       14.33903200       9.60710800      13.02586800      -1.34619259      -0.90677488      -1.82831987
H       14.02650300       8.65069600      11.74096900      -0.31018531       0.97148677       0.96164459
O       11.47623800      14.10330500      13.79992200       0.52922105       0.40510495       0.01020399
H       11.76653900      14.74153900      13.12863400      -0.38029899      -0.36284984       0.11003222
H       12.31417100      13.67429300      14.06899500      -0.67810516       0.17546407      -0.14395947
O       12.58134200      13.69342900      11.24741000      -0.18159302      -0.04230946      -0.27591719
H       12.43807600      13.70251200      10.29583000       0.09828187       0.07199408       0.00202552
H       13.51988600      13.88607300      11.39726600       0.14944091      -0.04918428      -0.04031655
O       13.68583500      12.77084900      14.63584800      -0.27852140      -1.96323605      -0.11333799
H       13.37447300      11.85639200      14.84491000      -0.03315787       0.80540070      -0.95336158
H       13.97467600      13.01145700      15.49634000       0.58533564       0.99481054       1.30950732
O        9.01135600      12.77893100      12.10473900      -1.87390986      -0.46221316      -0.26055464
H        8.87597900      12.82452400      13.04979300      -0.22934319       0.06011872       0.50680545
H        9.91275100      12.96924900      12.00153500       2.05190055       0.53627210      -0.16085008
O       11.67219200      11.25417800      12.56248000       0.91664226       0.19373300      -0.44023044
H       12.00000000      12.00000000      12.00000000      -0.23070408      -0.51252580       0.66583658
H       12.36565700      10.55898200      12.47029700      -0.79234993       0.46998911      -0.14174786
27
Properties=species:S:1:pos:R:3:REF_forces:R:3 REF_energy=-18719.398566371987 charge=0 spin=1 external_field="0.0 0.0 0.0" config_type=ORCA_DFT source_file=C_DFTprod_cutcluster_0099.out orca_step=0 pbc="F F F"
O       12.71354500       8.88435500      12.77999000      -0.34577874       0.56236499       1.82368736
H       12.20731700       9.59966300      12.37218400       0.18153928       0.09645818      -0.15242277
H       12.65207000       9.09148000      13.75831700       0.28590356      -0.45163914      -1.67376998
O       15.12515900       9.25806200      10.92654000      -1.52774391      -0.00775198       1.95341475
H       15.05979200      10.05923600      10.42920900       0.25091336       0.72708561      -0.78493132
H       14.42241800       9.43532900      11.63283800       1.30527189      -0.83019930      -1.16002347
O       14.45605900      12.73020300       9.25851000      -0.42324449      -1.41400138       0.91159513
H       14.18839700      12.21194300      10.06387100       0.34269702       0.90547622      -0.69548222
H       14.17304700      12.12069300       8.55933200       0.06258703       0.37279754      -0.10824294
O       12.46705800      14.57705300      10.07276900       1.71285512      -1.24559653      -0.94598179
H       13.23597300      14.00348100       9.70457900      -1.49764328       1.64458086       0.06991329
H       12.34759100      14.00190400      10.83608100      -0.49837337       0.16393103       0.42666031
O        9.76815200      12.97715500      10.53339500      -0.41614521      -0.05529158       0.88890808
H        9.48178200      13.86374400      10.77271600       0.14832454       0.20464414       0.00547141
H        9.02443500      12.41090300      10.76482100      -0.03212290       0.05369163      -0.24707866
O       11.61277000      10.52902100      10.49267000      -0.37554065      -3.43099782       2.22442457
H       10.94462200       9.81451400      10.79508500       1.53067224       1.91244180      -1.16808383
H       11.15566500      11.14024800       9.96400000      -1.13196497       1.34356734      -1.35910842
O       12.75072500      12.64579800      11.90432500      -1.12357222      -2.05471370      -0.89626118
H       12.74682900      13.02519300      12.74913800       0.42738551       1.20556455       2.00267467
H       12.00000000      12.00000000      12.00000000       0.80452472       0.54497050      -0.69659088
O       10.64404900      12.71816400       8.10908200      -0.21486793      -0.13405774       0.78016012
H       10.97219400      13.47944000       7.63332400       0.22514550       0.20660086      -0.03387573
H       10.47331300      13.03271100       9.03751600       0.27285526      -0.21783709      -1.38970779
O       10.12002600      11.15355300      13.11991100      -0.40559377      -0.73626198       0.14585545
H       10.18497100      10.31566500      13.63222500      -0.39327175       0.85649058      -0.54694064
H        9.23853800      11.16552300      12.69039100       0.83518811      -0.22231770       0.62573637
27
Properties=species:S:1:pos:R:3:REF_forces:R:3 REF_energy=-18719.828329727017 charge=0 spin=1 external_field="0.0 0.0 0.0" config_type=ORCA_DFT source_file=C_DFTprod_cutcluster_0038.out orca_step=0 pbc="F F F"
O        7.95236200      10.32585100      13.66615100      -0.97355451       1.03339966       0.83056100
H        7.40909500       9.68852800      14.15784000       0.14517612       0.20114667      -0.24202567
H        7.77374100      11.19322500      14.11896200       0.20523169      -1.16131200      -0.72706931
O       10.29843600      14.27208600      13.76686800       0.42208739      -1.29542369      -0.47053855
H       11.20644700      14.62434000      13.72669500      -0.26434516       0.13936661       0.01360772
H       10.45212800      13.37372500      13.37164500      -0.20436934       1.15615314       0.58135028
O       14.18417300      13.90197800      16.76578100       0.87820221      -0.99681117       0.60679458
H       13.27253200      13.76331800      16.58106200      -1.44909411       0.43830787      -0.65154438
H       14.34884800      13.05684200      17.22407500       0.59141646       0.52162828      -0.07084218
O       12.85680300      15.54275800      13.41104200      -3.50985422       2.95748974      -0.08783331
H       13.67918200      15.20096100      13.54366600       3.65016062      -1.57960501       0.61146936
H       12.89893700      16.48175400      13.72950200      -0.07110443      -1.38043917      -0.47625797
O       12.15048100      12.05232900      12.96945800      -0.98755694      -1.39888113      -0.92147028
H       12.00000000      12.00000000      12.00000000       0.46162124       0.37955450       0.69184190
H       11.65378600      11.22859400      13.23852900       0.38190789       0.73106789       0.29348008
O       10.46699100      10.04732400      14.33947100       1.88432596       1.38334169       1.65474566
H        9.57861000      10.01949000      14.01549300      -1.20732318      -0.10300992      -0.54080336
H       10.43487700      10.73857500      15.07529200       0.09714719      -1.22519287      -1.00336131
O       10.50898100      11.54513400      16.76000200      -0.19734000       1.11880714       0.44860915
H       10.00283600      12.35670600      16.99338600       0.41929975      -0.81187977      -0.34872646
H       11.41579500      11.76759300      17.02109900      -0.23977719      -0.27210095      -0.12419499
O       14.58190000      11.17591700      14.53685000       0.59089694      -0.97803784       0.37180227
H       14.71033100      12.03268900      14.92000100      -0.02564496       0.79915199       0.11876610
H       13.84872300      11.23825300      13.93415700      -0.55213653       0.37003942      -0.46719786
O       11.88949400       7.67097400      15.44652000      -1.34578816      -1.22590820       1.07199707
H       11.15525800       7.15613900      15.89684100       1.44442303       0.90125786      -0.83892516
H       11.46739700       8.51330700      15.25009900      -0.14400786       0.29788922      -0.32423428
27
Properties=species:S:1:pos:R:3:REF_forces:R:3 REF_energy=-18719.687861158476 charge=0 spin=1 external_field="0.0 0.0 0.0" config_type=ORCA_DFT source_file=C_DFTprod_cutcluster_0458.out orca_step=0 pbc="F F F"
O       10.83217500      13.54459200       8.34845400       0.58192245      -1.00025032      -1.34754489
H       10.00139500      13.31748500       8.74654100      -0.87974749      -0.06757029       0.57960172
H       10.97135800      12.78758100       7.72878100      -0.00681219       0.99127039       0.59528237
O       12.38835600      12.79690000      12.47337100      -0.16447641      -1.05248630       0.06064127
H       13.16313200      12.57288900      13.11013700      -1.64767431      -0.32499924      -1.11323607
H       12.00000000      12.00000000      12.00000000       1.27466285       1.31776087       1.27479459
O       15.55392100      12.74629300       8.98499400       0.12831662      -0.73858579      -0.76972736
H       14.66717500      12.98785500       9.30349600      -0.37961667       0.31425547      -0.20096176
H       15.43395400      12.27896700       8.12994000      -0.00319023       0.54246038       0.93241351
O       11.88754700      15.87122300      14.16641700      -0.72965651      -1.91761584      -0.47274723
H       11.08494200      16.06190300      13.64237300       0.61472495       0.01798651       0.38296332
H       11.89616300      14.86359200      14.14771400       0.13603528       1.83463270       0.04579320
O       15.73267000      11.47764600      11.61109300      -1.12482573       1.72405654      -1.00882912
H       15.23715300      11.69749800      10.75468300       1.36188938      -0.67602607       1.49727633
H       15.84760300      10.54674300      11.69440200      -0.05636378      -1.00799469      -0.29176603
O       14.22759700      12.43452000      14.31159600       0.73842258       0.09272088       0.10643962
H       14.44949100      11.71741300      14.92847900      -0.01404748       0.37974050      -0.48623071
H       15.03037700      12.65150400      13.79513300      -0.31620457      -0.43518989       0.37122326
O        8.70808300      12.78008800      14.23670700       0.22926379      -0.67767733       0.51949750
H        8.41822600      13.37480600      13.56172300      -0.27203580       0.65008055      -0.61289879
H        9.09448300      12.04158900      13.75473200       0.06753887       0.05342115       0.08997869
O        8.22393200      11.66318900       9.69264300       0.11849120      -0.00641130       0.01007451
H        7.48837700      11.55377400      10.30091900      -0.11757069       0.13488276       0.04486174
H        8.49294400      10.76139100       9.49968800       0.08113543      -0.08114484      -0.08981517
O       13.04245500      13.42915300       9.97568500       0.30777346       0.12698767       1.55997361
H       12.77095700      13.54912700      10.95153400       0.42543291      -0.39741920      -1.78746391
H       12.27790600      13.52533500       9.39886200      -0.35338797       0.20311459       0.11040580
27
Properties=species:S:1:pos:R:3:REF_forces:R:3 REF_energy=-18719.9502254073 charge=0 spin=1 external_field="0.0 0.0 0.0" config_type=ORCA_DFT source_file=C_DFTprod_cutcluster_0287.out orca_step=0 pbc="F F F"
O       12.78351200      14.34907900      10.59480800       1.23671557       0.56155808       1.77416323
H       13.39403000      14.95592600      11.12318700      -1.36134431      -1.42527813      -1.03278034
H       12.63973300      13.51757500      11.13049100       0.41180144       0.84185539      -0.49639048
O        9.70978500      12.90664700      10.75700800       0.32558967       0.46437736       1.15979834
H        9.22594000      13.54621500      11.29096000      -0.71755936       0.05235296      -0.30456550
H       10.59367800      13.06970000      11.14750900      -0.12249050      -0.83487053      -0.29708657
O       12.63720800      12.06408100      14.72923800       0.07568742      -0.25480390       0.25431555
H       12.51002600      11.38012300      15.41083200       0.12788272       0.52839367      -0.39375764
H       13.48663900      12.48724100      14.89440100      -0.01362232      -0.20016328       0.22540004
O       12.00000000      12.00000000      12.00000000       0.85054650      -0.93040676       0.72530306
H       12.19553600      12.08704800      12.98012700      -0.36816184      -0.49608205      -1.28090698
H       12.21883600      11.04073400      11.74521300      -0.30256791       1.45526008       0.60532417
O       11.04934900      13.70442400       8.59306100      -1.27254765      -1.37798536      -1.42233798
H       10.46011500      13.35228000       9.27764000      -0.19816594       0.06440418      -0.42344756
H       11.59985000      14.26897300       9.07758900       1.50481424       1.36237733       0.98427195
O        9.46784600      11.78223000      13.65317900      -0.02153597      -1.17636772       0.89634993
H        9.60817600      11.55158500      12.73319500       0.10421926       0.10607704      -0.52879307
H        9.50927600      10.90515700      14.10733900      -0.12337357       1.19345033      -0.44356372
O       12.78241600       9.31800100      11.48536300      -0.30091505       0.31317180      -0.12001874
H       13.52709400       9.15272200      12.05155100       0.40596802      -0.24375726       0.70432949
H       13.22170400       9.50928400      10.64722000      -0.06641422      -0.04584745      -0.79845702
O       13.74425500       9.87955900       8.78795100       0.63337218       1.70947576       0.59789157
H       12.99006600       9.64817200       8.25333700      -0.44596389       0.03212912      -0.35920715
H       13.81300300      10.87693700       8.75261200      -0.26585579      -1.62973685      -0.11469080
O       10.91962500      14.83945400      14.39951200       3.29400537      -0.14302626      -0.48865239
H       10.49844300      14.19149400      13.84543800      -0.68291611      -0.66667795      -0.20163785
H       11.90853700      14.62885300      14.18690000      -2.70716794       0.74012038       0.77914649
27
Properties=species:S:1:pos:R:3:REF_forces:R:3 REF_energy=-18720.543207337207 charge=0 spin=1 external_field="0.0 0.0 0.0" config_type=ORCA_DFT source_file=C_DFTprod_cutcluster_0280.out orca_step=0 pbc="F F F"
O        7.95212500      13.30824600      12.70312400      -0.14058726       0.31794799      -0.59291376
H        7.52929500      13.97000900      13.25495000       0.04170643      -0.10596792       0.22076357
H        8.42253100      12.68629200      13.29348800      -0.15780604       0.06477977       0.24953129
O        9.20197600      11.69570400      14.35860100      -2.22197410      -0.91203309       1.49384334
H        8.96482500      11.24405500      15.22105000       0.70839790       0.95658178      -1.71465571
H       10.13500300      11.67618900      14.25550800       1.75137621      -0.15295514       0.37438484
O       12.31970200      11.88880800      12.89814100       0.85631970       0.49913549      -0.18339212
H       12.00000000      12.00000000      12.00000000      -0.83447005      -0.12532802      -0.52859530
H       13.16929900      12.34354200      12.74257500       0.01564969      -0.09188902       0.36699328
O       12.25516000      15.68724900      10.95593400      -0.89020345      -0.90756920      -0.67258896
H       11.34269000      15.25950000      10.99317000       1.31405441       1.12194491       0.61824201
H       12.47872000      16.16108000      11.76283400      -0.62840111      -0.22761957       0.18172888
O       11.81360000      11.18189900      15.44438400       0.41334672      -0.01703063      -0.57354106
H       11.48087600      10.41784100      15.93892700       0.66194501       0.00453805      -0.64287601
H       12.34951600      10.95631000      14.62921100      -1.13758735      -0.09226692       1.34403908
O       14.07872300      13.52975000      11.09347000       0.64980107      -0.36461943       0.88860042
H       14.17616600      12.98384600      10.32121700      -0.06493892      -0.19546973      -0.45716825
H       13.42816500      14.20482400      10.88926600      -0.51877749       0.55664321      -0.21604796
O        9.50141300      14.67753200      10.89980800      -0.37547087       1.95622255      -1.66086993
H        8.85736100      15.33000100      10.52057900       1.08317993      -0.77126637       0.40990751
H        8.96578400      14.21321000      11.53727200      -0.56462268      -1.06110731       1.08068405
O       11.76123500      14.94337800      14.26463400       1.94133894      -1.53178229      -0.99646566
H       12.75339000      14.80436800      14.41102600      -2.07963947       0.35874975      -0.14059061
H       11.57094000      14.19172800      13.62801200       0.16739091       1.12202138       1.09355186
O       11.21877600      12.68042100      10.23073000       0.08987734       0.58988331      -0.03619167
H       10.75326600      13.44128800       9.82630300       0.05342907      -0.61131109       0.53354714
H       11.10977900      11.94448700       9.63869100      -0.13333454      -0.38023230      -0.43992026
27
Properties=species:S:1:pos:R:3:REF_forces:R:3 REF_energy=-18720.389294134 charge=0 spin=1 external_field="0.0 0.0 0.0" config_type=ORCA_DFT source_file=C_DFTprod_cutcluster_0049.out orca_step=0 pbc="F F F"
O       14.60867000      13.48923900      12.11647300      -0.04594320       2.22477908       0.63135227
H       14.02585100      13.50092500      12.88793700      -0.22329565      -0.85105115       0.26058693
H       14.65482500      14.47514100      12.00589500       0.35989827      -1.22294768      -0.34879182
O       14.17880600       9.62705800       9.38575700       0.56429121      -0.07895257       0.41540659
H       14.10635100      10.59918200       9.37560300      -0.12775658       0.01703891       0.02017154
H       14.89357800       9.48688700      10.03752400      -0.61215971      -0.00946757      -0.45063739
O       13.01003300      13.05270900      15.07188200       0.11819290      -0.49698862      -0.33464453
H       13.20491000      13.43315800      15.91492700       0.77414035       0.33873947       0.93627464
H       12.14057100      13.41955400      14.94357600      -0.94039247       0.25122601      -0.72325297
O       11.36934200      12.76283700      12.04100500       1.27389162      -1.18770854       1.32943568
H       11.15161200      12.82652200      11.14345300      -0.79780345       0.47504497      -2.11870923
H       12.00000000      12.00000000      12.00000000      -0.39891368       0.22843924       0.67202492
O       13.42520800       9.93300700      15.75880600      -1.41598761       1.44820765       0.62127782
H       12.63177300       9.59353400      16.19605800       0.25175833      -1.08216218      -0.10923183
H       13.11949600      10.86736400      15.87911800       1.15908116      -0.28833299      -0.78510960
O       11.58681900       8.40771000      10.39483000       1.92212216      -0.26264659      -1.25538261
H       11.48064000       7.45142500      10.50578400      -0.03175261       0.29382158      -0.05723533
H       12.40982000       8.49457000       9.78509900      -1.67672531       0.13731867       1.42855305
O       12.89444200      10.18740600      12.29612500       1.14377929       1.05076634       2.05834153
H       12.47967100       9.40076900      11.96420300      -0.49298552      -0.84882344      -0.39595876
H       13.22203200      10.02034000      13.23049700      -0.73115273       0.10946159      -1.61464797
O       14.23783700      12.52581500       9.69811200       0.83296925      -0.55139867       2.07053031
H       14.37482200      12.82628200      10.67839700      -0.42787916      -0.59901916      -1.96410684
H       13.75283200      13.21374000       9.28076300      -0.59136714       0.85134827      -0.53105744
O       10.81870200      14.86357800      13.62494000       0.98587405      -0.25915529       0.43999045
H        9.95448100      15.20307300      13.47890200      -1.07625178       0.49150652      -0.04036509
H       10.88857200      14.09418200      13.03970400       0.20436816      -0.17904387      -0.15481436
27
Properties=species:S:1:pos:R:3:REF_forces:R:3 REF_energy=-18719.753603902347 charge=0 spin=1 external_field="0.0 0.0 0.0" config_type=ORCA_DFT source_file=C_DFTprod_cutcluster_0003.out orca_step=0 pbc="F F F"
O       12.55769600      14.81762300      12.07823900      -0.15360805       0.10437862      -0.24750552
H       11.84160100      15.01701200      11.45442100      -0.33066245      -0.12849979       0.39769894
H       13.21638700      14.45241500      11.48451600       0.35213060      -0.26664286       0.05684591
O       10.62906600      13.63226100      14.46571200       3.06423758       0.67151558       2.29652546
H       11.05421800      13.67827200      15.40961900      -1.59468613      -0.18507275      -2.41054042
H       11.46979800      13.72499100      13.93570800      -1.39582512      -0.12842677       0.07074021
O        8.57462600      12.04039200      10.45371000      -2.90681386      -0.90238369       0.07287376
H        8.01164800      11.23218700      10.28162100       0.72021413       1.58681598       0.26570960
H        9.43176000      11.72679300      10.29827200       2.21990246      -0.66020843      -0.30501889
O        9.23895000       9.46202100      12.38021900       1.62006796      -1.35905464       0.34819687
H        8.63661900       9.44238600      11.66777500      -1.06551367       0.22838509      -0.88986622
H        9.26280800      10.31039400      12.80133000      -0.52522062       1.05739346       0.78132684
O        9.80227600      14.65115500      10.98588400       1.77313649      -1.36599446      -1.67715777
H        9.28196000      13.84745400      10.93821900      -0.33304232      -0.10144052       0.09792057
H        9.35426800      15.26154100      11.50249600      -1.45774803       1.61520060       1.56611017
O       13.59274600      12.21993000      10.62302600       0.69123070       0.15645385       0.20487693
H       13.64356100      12.16819800       9.66863900      -0.17460034      -0.01715785      -0.35424060
H       14.52470900      12.15071900      10.89140700      -0.42741277      -0.09341708       0.14145403
O       11.45658100      11.43357800      12.49347000      -1.90874512      -2.21449502       1.34183709
H       12.00000000      12.00000000      12.00000000       1.05229182       0.82859462      -1.82164529
H       11.02591100      10.68507800      11.99989000       1.03533061       1.20966011       0.32743027
O        8.65133000      11.82189100      14.01648800      -0.05776369      -0.05292606      -0.34292250
H        9.35121600      12.48957600      14.14576600       0.19147773      -0.19271649       0.17518907
H        8.35488500      12.01722200      13.12338500      -0.29690238       0.15429567      -0.09563096
O       14.16459800      10.26668100      13.65637600       1.53510878      -1.13638243      -0.01223578
H       13.43094200      10.42587000      13.09373000      -1.37328503       0.47573228      -0.55615028
H       14.18982100      10.93624600      14.31930800      -0.25329924       0.71639301       0.56817851
27
Properties=species:S:1:pos:R:3:REF_forces:R:3 REF_energy=-18719.468860640914 charge=0 spin=1 external_field="0.0 0.0 0.0" config_type=ORCA_DFT source_file=C_DFTprod_cutcluster_0423.out orca_step=0 pbc="F F F"
O       12.00000000      12.00000000      12.00000000      -0.58129243      -0.50586417       0.36321998
H       12.71436600      12.62320400      12.02551000       0.78025891       0.55824094       0.18058607
H       12.37209100      11.20475800      12.40755900      -0.02536949      -0.11843638      -0.34828598
O       11.52292800       9.11591700      10.15813500      -1.71438009      -0.39651155       0.42357231
H       12.41868300       9.16547200      10.45671800       0.79250487      -0.14440237       0.44640232
H       10.96671800       8.77429500      10.92234700       1.17249486       0.73549137      -1.14714229
O       15.32883300      10.39249600      11.52845700      -0.34964419       0.48819946      -0.06228986
H       14.81857100      11.24453800      11.57310100       0.68295437      -1.53310944       0.24355496
H       14.86819300       9.66391000      11.98483300      -0.01121736       0.76779070      -0.39511390
O       10.48616700       8.77569400      12.67919100       0.55987555       0.57519701       1.35924284
H       11.16284300       9.28573400      13.20542900      -1.18173705      -0.69639625      -0.79302536
H        9.68160900       8.74261400      13.22532200       0.48414596       0.09367784      -0.27651065
O        9.39578400      14.00413700      10.65553100       2.53218024      -0.92539090      -0.77270732
H       10.12661600      13.30643200      10.71715200      -1.58051544       1.32350682      -0.28506517
H        8.76217100      13.75475700      11.29773800      -0.94050642      -0.45142003       1.00774082
O       14.91012900      12.99835400      12.28346400      -1.30392149      -0.65351179      -0.42267474
H       15.50014900      13.18417500      13.00277500       0.53801505       0.56188486       0.09875186
H       14.85812800      13.68554200      11.62003000       0.58292497       0.49969846       0.22475110
O       12.11751700      11.38789800      14.96651500       0.12027832      -0.94474931       0.32045116
H       12.58364000      11.84102700      15.66656600       0.05490591       0.26932626       0.19973997
H       11.98571300      12.00859200      14.25987300      -0.21335556       0.69113115      -0.55411026
O       11.86165300      12.52484600       9.01182300       1.21495910      -0.54982043       2.45641080
H       11.84945200      11.59518400       9.37104600      -0.32569627       0.91004193      -0.76994256
H       12.35933400      12.94354200       9.78257900      -1.00869203      -0.49666873      -1.73541383
O       13.57989100       9.22147500      13.30785100       0.81760490       1.90651731       0.16269700
H       13.10765500       8.68574100      13.92313300      -0.45288037      -0.77286518       0.77612077
H       13.93299900       9.98042700      13.85234800      -0.64389483      -1.19155754      -0.70096006
27
Properties=species:S:1:pos:R:3:REF_forces:R:3 REF_energy=-18719.848466440355 charge=0 spin=1 external_field="0.0 0.0 0.0" config_type=ORCA_DFT source_file=C_DFTprod_cutcluster_0249.out orca_step=0 pbc="F F F"
O       10.35602900      14.08276100      13.92226700      -0.37433069       0.89835102       1.14706963
H       11.04640100      14.76667400      13.92205500      -0.18400862      -0.30688947      -0.13899950
H        9.81536000      14.35302200      14.70934400       0.55924321      -0.54460314      -1.03697206
O       15.15579000      11.91891100      11.59353500      -1.28754953      -0.11819830      -0.74475726
H       14.37433200      11.34556600      11.81751400       0.81943841       0.71411907      -0.23033713
H       14.90068900      12.34029200      10.73598300       0.32778200      -0.60022387       0.84056665
O       12.27590900      16.16003600       9.46438500      -0.04929762       0.48103580      -1.07770661
H       12.52005400      16.70206000       8.67502500      -0.16265185      -0.73872201       1.05820680
H       12.99148900      15.52245600       9.60537400       0.06377853      -0.01757838       0.10877253
O        8.44427600      15.16611200      11.69205800      -0.11696170       0.04004915      -0.23107241
H        8.64672200      14.75255400      10.83461800       0.00640678       0.19599243       0.56118326
H        9.05508900      14.81824100      12.35204900       0.08379935      -0.26590017      -0.19389184
O       11.15286100      12.62997000      10.37316800      -0.65636119      -0.26333318      -2.28435139
H       10.67471200      13.32936300       9.84961200       0.38517123      -0.61074277       1.02573999
H       11.18603500      11.90596600       9.68794000       0.11517499       0.82345838       1.34677135
O       12.44632000      11.33188900      12.54765800       0.12375142      -0.08719655      -1.06297573
H       12.00000000      12.00000000      12.00000000      -0.16902413      -0.23645466      -0.10896120
H       12.40498200      11.68278100      13.42105600      -0.08271944       0.29395605       1.12068446
O       13.91029300      12.44454200       8.46703200      -0.86566659      -0.59213117      -1.30870148
H       13.09192800      12.38641200       7.88904200       1.64175059       0.05437498       1.04243277
H       14.56679500      11.84741500       8.04704200      -0.67880404       0.53143642       0.29310614
O       13.79228400      14.52653100      11.49017800       1.39926746      -3.38721162      -0.92597526
H       13.26529200      15.11073700      11.97417100      -1.35281580       0.94521570       1.41660241
H       13.76461900      13.56168700      11.84837600       0.03515670       2.64442006      -0.55893118
O        9.46516700      14.86741300       9.01981600       2.10402988       0.02281412      -1.27424304
H       10.36976400      15.24810400       9.21057700      -1.01479187       0.08337780       0.24213762
H        9.59123000      14.70706500       8.05301900      -0.66976749       0.04058430       0.97460239
27
Properties=species:S:1:pos:R:3:REF_forces:R:3 REF_energy=-18719.758898401673 charge=0 spin=1 external_field="0.0 0.0 0.0" config_type=ORCA_DFT source_file=C_DFTprod_cutcluster_0094.out orca_step=0 pbc="F F F"
O       10.31161900      12.16092300      10.85139800       0.60655305      -2.32760243      -0.62304781
H        9.88090200      11.38044300      11.27219900       0.00688459       0.55046947      -0.17636427
H       10.09323200      12.95042900      11.29646300      -0.61101500       1.36213353       0.68457828
O       12.15730100       9.87339800      10.22363000       0.08257762      -0.14559171      -0.11483900
H       11.55653100       9.53042100       9.52396500       0.42303140       1.03151438       0.91432688
H       11.86582100      10.73527600      10.59199300      -0.38073392      -0.98822265      -1.06489815
O       10.95594800      14.29992600      13.52212300       1.61096147       0.19176564      -0.86428940
H       11.46459400      14.88760900      14.08902000      -0.24604302       0.05559404       0.17721906
H       10.11928600      14.13680700      13.90130700      -1.46233961      -0.09658411       0.91665198
O        9.44102700       9.38311700      11.80331400       0.04536856       0.62830248       0.28955514
H       10.21194600       8.97309700      12.22619900       0.17662693       0.11457361       0.07847738
H        9.08772300       8.76112400      11.17437600      -0.10715613      -0.33411380      -0.22219743
O       12.42504300      11.97793800      12.93023700      -0.40131185      -0.74252287      -2.92812965
H       11.99512000      12.76058600      13.22513700      -0.45110775       1.23508709       1.15923280
H       12.00000000      12.00000000      12.00000000       0.99919710      -0.39078411       1.78860486
O       10.68909400      10.84742500      15.36123100       0.24329276       0.61260975       0.31243035
H       10.31002000      11.03645500      14.46952600       1.23296531       0.16800577       1.10705519
H       11.44758300      11.42864600      15.65386200      -1.49102927      -0.81834337      -1.35545628
O       12.10415600       9.15797800      13.13072400       0.51651394       0.64103731      -0.53014562
H       12.48844300       9.02681000      12.25043200      -0.16260280      -0.43748614      -0.09018088
H       12.40681100      10.08443200      13.25787000      -0.56213776      -0.43771281       0.49539829
O       12.18688600      12.14180000       7.48345500       1.23718182      -0.38174318      -0.68255086
H       13.15108600      12.02734800       7.63546600      -1.09131186       0.12042884      -0.00534054
H       11.81898000      12.45898800       8.29805200      -0.22854337       0.23934411       0.75002309
O       11.26106300      14.97831700      10.73712900      -0.92864731      -0.60475724       2.18581308
H       12.16689900      15.07665900      10.49194200       0.97246662       0.09551526      -0.33199017
H       11.28437100      14.73845500      11.72007000      -0.02964148       0.65908316      -1.86993637
27
Properties=species:S:1:pos:R:3:REF_forces:R:3 REF_energy=-18720.45851248962 charge=0 spin=1 external_field="0.0 0.0 0.0" config_type=ORCA_DFT source_file=C_DFTprod_cutcluster_0445.out orca_step=0 pbc="F F F"
O        8.32850000      12.61738600      10.19217200      -0.80266453       0.79021041       0.01632717
H        9.13721600      12.09150500      10.32298500      -0.49117304      -0.43158382       0.54100931
H        7.60367000      12.44695400      10.83412300       1.31573885      -0.23560573      -0.51732538
O       10.53669300      10.99967000      10.70594800       0.99284498       0.13229350      -0.82599868
H       10.27752600      10.11694500      10.96050700      -0.16447086      -0.37309137       0.05809434
H       11.10607000      10.89810800       9.88810400      -0.44162865       0.40435383       0.58228050
O       12.07907700      11.61957300       8.30518400       0.88641035       0.39061087       0.03178866
H       11.72389000      12.54701600       8.33635600       0.48546262      -0.78497421       0.06292791
H       13.08413400      11.67373300       8.26422100      -1.88203115       0.27040556       0.24156760
O       14.68794200      12.26452500       8.92549000       2.45978594       1.27034489      -1.05380569
H       14.71403500      12.55604900       9.83938600      -0.32272988       0.00741594       0.34177091
H       15.48036700      12.76499900       8.52327700      -1.95183506      -1.25359379       0.75705768
O       10.82664100      14.17501600       8.91524000      -0.03068627       0.54472033       1.45542098
H       11.31468000      14.54948200       9.71371700      -0.70292140      -0.42889141      -1.31953518
H        9.87766700      14.16110000       9.17139800       0.80457116      -0.13402324      -0.17209207
O       12.51062200      12.78725700      12.18114400       0.61260631       0.52542734       1.46818702
H       12.73750700      12.81897700      13.17174700      -0.37080195      -0.37250115      -1.89399146
H       12.00000000      12.00000000      12.00000000      -0.47502369      -0.32345488      -0.19695145
O       13.44911700      12.83302400      14.61963200       0.65571738      -0.97944131      -0.79346810
H       13.16239100      13.45710200      15.25007300      -0.45237551       1.01278713       1.29429718
H       13.70128700      12.02599500      15.07680100      -0.03185648       0.05665894       0.09510033
O       12.65762600      15.22984000      11.03543200       0.07084238       1.87879110      -1.06118465
H       12.55603900      14.39218200      11.45232000      -0.15729136      -1.61158692       1.06041666
H       12.40895000      15.92375900      11.65739000       0.01094580      -0.31371559      -0.09877871
O        8.57677800      12.96632800      13.20513300       0.33091777       0.20000479       0.00825982
H        9.08229700      13.32155200      12.43085000      -0.28386735      -0.30724515       1.38616543
H        8.98464400      13.16305000      14.07856200      -0.06448636       0.06568403      -1.46754008
