27
Properties=species:S:1:pos:R:3:REF_forces:R:3:MACE_forces:R:3 REF_energy=-18719.990542475483 charge=0 spin=1 external_field="0.0 0.0 0.0" config_type=ORCA_DFT source_file=C_DFTprod_cutcluster_0028.out orca_step=0 MACE_energy=-18719.978515625 pbc="F F F"
O       11.91893400      15.11105300      12.02534600      -2.13573740      -0.37943089      -0.95974938      -2.16742659      -0.36949170      -0.99402153
H       10.98014900      15.48889700      11.95803200       2.01181818      -0.90236153       0.19066089       2.04562402      -0.90599591       0.19695912
H       11.87350100      14.22718600      11.56148400       0.13676347       1.35670419       0.62012041       0.13510045       1.37705743       0.63068652
O       11.93950900      14.07087000      14.61570100       0.65055857      -0.21471973      -0.48586228       0.65452713      -0.22556311      -0.48565507
H       12.88309800      13.95645400      14.85716100      -0.79458813       0.41342895      -0.29936601      -0.80938208       0.40318710      -0.30112720
H       11.95405000      14.33866200      13.65863400       0.15639034      -0.03833962       1.06271502       0.15147248      -0.03567429       1.07610404
O       12.80592200      10.60399600      14.34731400      -0.20001389      -0.87139346       0.18569881      -0.19998541      -0.85735816       0.18614286
H       13.02227700       9.77405700      13.88856700       0.13778893       0.38334246      -0.09414933       0.13878009       0.39751929      -0.09912851
H       12.26510900      10.27975600      15.08561900       0.09111080       0.45301442      -0.12889517       0.09342937       0.44461405      -0.12168492
O       12.00000000      12.00000000      12.00000000       0.01843605      -0.28164098       0.49041138       0.03558733      -0.28462526       0.49643111
H       12.11179400      11.60972600      12.91249100      -0.56760788       0.76622695      -0.96795881      -0.57129186       0.75242525      -0.94511306
H       11.09086600      12.36042000      11.89444000       0.52701206      -0.53110675       0.42003864       0.50109410      -0.53984708       0.40070260
O        9.85359900      13.34894200      10.51213800      -0.03262843      -0.12126342      -0.23198135      -0.03958076      -0.13340917      -0.22745425
H       10.06871600      14.15359900      10.01117000      -0.20975622      -0.65907962      -0.10002615      -0.21651371      -0.65823382      -0.10473046
H        9.55400700      12.65212900       9.89531000       0.27383356       0.80413402       0.29491311       0.27988768       0.80759132       0.29849142
O       14.52563100      13.22128300      11.19668500      -3.47848933      -0.21038763      -0.88389515      -3.48167896      -0.19368032      -0.90080810
H       13.73146900      12.74579400      11.59590300       1.10210834       0.92682460      -0.82059797       1.12244225       0.91209573      -0.81999338
H       15.21472300      12.92873800      11.72203900       2.32823601      -0.70617806       1.63828834       2.32767987      -0.72274262       1.64367402
O       12.15229000       9.38633400      10.74020500      -0.00702708       0.71335479       0.14847932      -0.00386880       0.71913809       0.15350367
H       12.05068000      10.30386000      11.07196700      -0.10383571      -0.25357394       0.16739122      -0.09885706      -0.26177254       0.16270199
H       12.74667400       9.54488000      10.00225300       0.11553963      -0.33167238      -0.20305433       0.10991926      -0.33194441      -0.20825508
O       14.65815900      12.98274000      14.80259600      -0.56924712       1.36732999      -0.15000629      -0.55544841       1.36385286      -0.13716093
H       13.97475900      12.32556000      14.81538300      -0.43137437      -0.92401706      -0.07979270      -0.43724567      -0.93208086      -0.07888421
H       15.48077300      12.54242000      14.88783800       1.08439354      -0.68313527       0.19202568       1.07480979      -0.67521977       0.18426141
O        9.39551400      11.06628100      12.76000200      -0.06105676       1.66071757      -1.05917009      -0.06728597       1.70065188      -1.06528950
H        9.30720400      10.90607700      13.68000800      -0.11563800      -0.69025198       1.01040875      -0.10708174      -0.71796906       1.01208222
H        9.49639600      10.28307800      12.24271200       0.07301100      -1.04652561       0.04335338       0.08529282      -1.03252470       0.04756509
27
Properties=species:S:1:pos:R:3:REF_forces:R:3:MACE_forces:R:3 REF_energy=-18719.380267008415 charge=0 spin=1 external_field="0.0 0.0 0.0" config_type=ORCA_DFT source_file=C_DFTprod_cutcluster_0465.out orca_step=0 MACE_energy=-18719.390625 pbc="F F F"
O        7.85710600      13.88371300      14.26950800      -0.30999906      -0.06708451      -0.13528657      -0.29790631      -0.06831521      -0.13648975
H        7.10754100      13.97486300      13.66471800       0.19970562      -0.02958944       0.22959608       0.18975219      -0.02485484       0.22929576
H        8.62185600      14.16154300      13.76151500       0.23507752       0.13278021      -0.07881913       0.22889267       0.12349179      -0.08027467
O       16.32918000      10.93301000      12.02658200      -1.78214543       1.51585461      -2.77485455      -1.78791082       1.50858498      -2.77834654
H       16.87703400      11.46760800      11.42083200      -0.20371531      -0.49104757       0.61171866      -0.20421600      -0.49787086       0.61432409
H       16.84162800      10.59586800      12.69961200       2.05961438      -1.09150830       2.12569919       2.06801915      -1.08624876       2.12425375
O       14.57496400      12.77371900      13.19860300       0.04466608       0.94391020       1.47062931       0.02205968       0.94642550       1.45691657
H       15.06659000      13.09971600      13.99774000      -0.70478900      -0.57784607      -1.32014942      -0.69618499      -0.58557671      -1.31082201
H       15.11818900      12.09143200      12.80031200       0.65044364      -0.38407528      -0.16980142       0.64388990      -0.37495148      -0.16939658
O       12.05450800      16.61204000      12.88114400       0.22455209       0.87844430       0.44935857       0.21908069       0.85337776       0.45234630
H       11.28314400      16.73995300      13.43365000      -0.19621411      -0.06272284       0.08988922      -0.19431052      -0.07213736       0.07886366
H       12.00142500      15.71855600      12.56121800       0.03973162      -0.74553734      -0.60307631       0.04361390      -0.70676285      -0.58666474
O       12.00000000      12.00000000      12.00000000       0.30991226       0.06246789       0.74794456       0.32127792       0.05189408       0.72166550
H       11.59912000      12.15728700      12.87524600       0.12482758       0.03475453      -0.51051360       0.10138172       0.05028509      -0.49968910
H       12.94757500      12.12290400      12.21598800      -0.47870252      -0.09386065      -0.04037995      -0.44801754      -0.10069989      -0.02191160
O       14.98387400      16.18597000      12.96922500       1.73926266       0.19074054      -0.52425476       1.74747670       0.19610572      -0.52312928
H       14.50034700      16.99638900      12.91719600      -0.64890540       0.68945859      -0.14918406      -0.65230095       0.69690406      -0.14978398
H       14.43667700      15.61405900      13.46464500      -1.02822712      -0.92801065       0.59106149      -1.02554131      -0.92096233       0.60193270
O       12.43857700      14.61314600      10.52736500       0.51254303      -0.83012767       0.87338304       0.50345802      -0.84383768       0.87269849
H       11.46902800      14.63376200      10.55300300       0.24456453      -0.20156041      -0.18578165       0.22462095      -0.19791311      -0.17926973
H       12.65180600      13.74815900      10.96767400      -0.45671316       1.23254437      -0.66963975      -0.44251531       1.22724128      -0.67549366
O        9.91140100      13.74980300      10.44376400      -2.51010912       0.36219061       0.70513281      -2.53270245       0.34448498       0.69999784
H        8.98239700      13.94495400      10.77195300       1.72422834      -0.27112897      -0.72752938       1.74411714      -0.26009843      -0.73396993
H       10.03915400      12.82558000      10.67786700       0.37258429      -0.17967256       0.03257089       0.37063637      -0.17310444       0.03439727
O       11.17652500      14.31827100      14.62502500       0.03480986      -0.55259115       3.69050252       0.02507029      -0.55323076       3.71337485
H       10.64151100      13.80114700      15.38085800       1.90582100       1.84992141      -2.42716980       1.91974354       1.87169647      -2.45438933
H       11.92711100      14.81415000      15.13094900      -2.10282429      -1.38670403      -1.30104612      -2.09148455      -1.40392745      -1.30043626
27
Properties=species:S:1:pos:R:3:REF_forces:R:3:MACE_forces:R:3 REF_energy=-18719.690915309802 charge=0 spin=1 external_field="0.0 0.0 0.0" config_type=ORCA_DFT source_file=C_DFTprod_cutcluster_0206.out orca_step=0 MACE_energy=-18719.71484375 pbc="F F F"
O        9.58768000      10.81882400      12.19657600       2.12398570      -1.77040017       1.39138899       2.11734962      -1.76675653       1.38930905
H        9.95562500      10.57025900      13.14189000      -1.34320939       0.97465566      -2.12032091      -1.32581520       0.96825385      -2.12291670
H       10.23639900      10.35413800      11.59513000      -1.17677858       0.95259755       0.56269322      -1.18602264       0.96942657       0.57765341
O       14.37243000       9.23485000      12.36722500      -0.09602824      -1.04806282      -1.89007109      -0.09755465      -1.06264448      -1.86578918
H       14.34925600      10.00624000      12.95564000       0.53186662       0.64043793      -0.54124559       0.53123820       0.62981081      -0.55561352
H       14.72519800       9.41361300      11.45021000      -0.43144307       0.24163646       2.03962287      -0.42755488       0.25352484       2.03020549
O        8.95699400      13.33973100      11.76168000       0.51836447       0.71811673       0.10947434       0.52960438       0.73199069       0.09362716
H        9.65762300      13.99826700      11.86899400      -0.28647953      -0.04968200      -0.30618992      -0.30449122      -0.06033324      -0.30554992
H        9.39711900      12.48435300      11.93508800      -0.41604468      -0.27503900      -0.02740256      -0.41701323      -0.27644697      -0.03263023
O       13.34157200      15.17168600      11.76489900       0.50916681       0.09083970      -2.03569689       0.50392854       0.09219357      -2.02697706
H       13.59869500      15.27965100      10.79336900      -0.57193176      -0.31900086       2.13220984      -0.56733489      -0.32504970       2.12677908
H       13.16772100      14.22188400      11.88900900      -0.00674812       0.24639033      -0.03265132      -0.00663488       0.24789456      -0.03481790
O       12.18301300      12.63747600      12.68394000       1.35884448       0.31967988       0.45224433       1.37808537       0.33985564       0.47125494
H       11.37657400      13.00612800      13.03311200      -0.73623041      -0.16187667       0.23652932      -0.74587399      -0.15417841       0.26155233
H       12.00000000      12.00000000      12.00000000      -0.65345425      -0.36632592      -0.60841731      -0.64863366      -0.39682037      -0.63151687
O       11.71023700      10.62433700      10.43329500       0.08707293       0.21068120      -1.07045806       0.08711230       0.20526272      -1.06402528
H       12.26813700       9.88815200      10.70176300       0.29371436      -0.17488403      -0.17861136       0.29325736      -0.16131568      -0.18338139
H       11.71976000      10.67849800       9.44605900       0.04708179      -0.18702139       1.30456278       0.04495963      -0.19514343       1.30639327
O       10.38159700      10.07392400      14.62666500       2.19564256      -2.46324480      -1.01280939       2.19670630      -2.47598767      -1.01112866
H       10.75485800      10.47338000      15.42139200       0.10565152      -0.06424179      -0.19322361       0.10210531      -0.04631263      -0.19459718
H       11.07660600       9.37814100      14.25822100      -2.01855139       2.15945202       1.57100771      -2.01872063       2.15796661       1.56609464
O       14.39683300      11.40681500      13.92462300      -0.44483004       0.56008319      -1.04214728      -0.46208796       0.58010840      -1.04686117
H       14.28792700      11.04608500      14.77654600       0.31205178      -0.76737578       1.85511489       0.31825927      -0.77267569       1.86145484
H       13.50560700      11.76516100      13.76690800       0.03681152       0.52139991      -0.57223078       0.03732948       0.52003056      -0.58240557
O        9.89973000      13.60338800      14.76327100       0.42534606       0.73210327      -0.28616149       0.44246948       0.72070134      -0.28700894
H       10.36196800      13.83821200      15.59518600      -0.42627382       0.25855170      -0.96225322      -0.43182069       0.24871735      -0.97702897
H        9.81991700      14.40515100      14.18225400       0.06240274      -0.97947031       1.22504246       0.05715379      -0.97207266       1.23792446
27
Properties=species:S:1:pos:R:3:REF_forces:R:3:MACE_forces:R:3 REF_energy=-18720.243947499275 charge=0 spin=1 external_field="0.0 0.0 0.0" config_type=ORCA_DFT source_file=C_DFTprod_cutcluster_0071.out orca_step=0 MACE_energy=-18720.228515625 pbc="F F F"
O        9.20788800      15.08401500      11.36234200       1.36389983      -0.26055757      -0.20057023       1.35946786      -0.26664212      -0.17126200
H        9.92552600      14.56527700      10.89197200      -1.11253478       0.47684146       0.47137087      -1.13293827       0.48066887       0.47270164
H        8.35717700      14.79182700      11.03911800      -0.07475622      -0.23305139      -0.28090106      -0.06630708      -0.23589158      -0.29857266
O       13.55221900      14.93385600      12.47504000       2.08368839      -1.94673101      -1.63013290       2.09069133      -1.93533742      -1.65568304
H       13.47442000      14.06095400      12.88166000      -0.21400332       0.48687148       0.25167343      -0.22497703       0.50074667       0.26654923
H       12.91730200      15.51787500      12.80691700      -1.95576541       1.34174731       1.22032710      -1.95072627       1.32275128       1.22680223
O       11.32243900      13.40127200      14.28323800      -0.35488811      -2.45369469      -2.07307817      -0.37439030      -2.46576762      -2.10356140
H       11.14264400      12.76057200      14.95799000      -0.04676549      -0.46909678       0.68620902      -0.03408395      -0.46826056       0.68324226
H       11.51748100      14.19648200      14.68512500       0.49423759       2.84261063       1.32908287       0.49049342       2.85483766       1.33367062
O        8.21547500      11.72384400      10.14637600      -0.11504942       0.00771691       0.36884056      -0.09253204       0.00729722       0.36073211
H        8.53944400      11.71736400      11.06897500       0.14019450      -0.02165661      -0.26085114       0.12588803      -0.02744526      -0.27699625
H        7.40862500      11.19728800      10.18098400       0.13354995       0.02047272      -0.10216480       0.12304574       0.02313092      -0.09407496
O       10.29274700       9.04224400      12.26495000      -0.07931083      -0.12905648      -0.31226241      -0.07403372      -0.11218542      -0.32194149
H       10.80807700       9.91101200      12.27374200      -0.88721932      -1.69989331      -1.07381093      -0.88354480      -1.71413040      -1.06810689
H       10.15048900       8.62207000      11.37302000       0.68626811       1.40664545       1.39270606       0.68502241       1.41378748       1.39899170
O       11.75522300      11.15587700      11.57604600       1.01684819       0.65261782       1.23426886       1.00087810       0.66431445       1.22604740
H       11.34799800      11.47147700      10.78613600      -0.65387277       0.25263667      -1.06230797      -0.63403434       0.24683186      -1.08437514
H       12.00000000      12.00000000      12.00000000      -0.11049404      -0.60451510      -0.11856391      -0.12240212      -0.62276316      -0.10668448
O       11.21169200      16.23385100      13.26598100       1.29799479       0.64267284       1.21981515       1.28478479       0.63264829       1.23496437
H       10.62847100      15.77115700      12.68276900      -1.30086944      -0.02108325      -0.70863131      -1.30038071      -0.02263512      -0.70987374
H       10.91251800      17.13448900      13.46445600      -0.20180400      -0.64407893      -0.45983839      -0.19291258      -0.63472068      -0.46277183
O       11.60957800      13.82425300      10.44798800       2.31782916       1.48121619      -0.37100348       2.35031462       1.49514508      -0.38473567
H       11.87328800      13.98031500       9.51200200      -0.65958227      -0.39192835       0.63764088      -0.66621256      -0.41049436       0.63712168
H       12.40787700      14.29398600      10.88671000      -1.58510934      -0.86767915      -0.17264085      -1.59478939      -0.87940657      -0.15412098
O        9.11491900      12.31222400      12.77621800       0.77239010      -0.77471293       0.20019768       0.76380920      -0.74985540       0.23750010
H        8.47654700      13.00968800      12.77337100      -0.38398251       0.85689794       0.14545256      -0.40293387       0.85102773       0.12678489
H        9.92760500      12.68214900      13.17490500      -0.57089329       0.04878823      -0.33082762      -0.52719653       0.05234807      -0.31234783
27
Properties=species:S:1:pos:R:3:REF_forces:R:3:MACE_forces:R:3 REF_energy=-18719.386079455653 charge=0 spin=1 external_field="0.0 0.0 0.0" config_type=ORCA_DFT source_file=C_DFTprod_cutcluster_0096.out orca_step=0 MACE_energy=-18719.40625 pbc="F F F"
O       12.00000000      12.00000000      12.00000000       1.59906492       0.27391075       2.72378951       1.56798112       0.29500884       2.74948215
H       12.21101300      12.57645900      12.80419100      -0.82232828      -0.99180122      -2.04731155      -0.81384236      -0.98734224      -2.04929209
H       11.25374600      12.33693100      11.53627200      -0.80220970       0.71229883      -0.23674627      -0.77994812       0.69562769      -0.25085491
O       13.33596900      10.94135700       9.98622400      -0.04622067       0.58826901       2.17732386      -0.06219694       0.60746533       2.19945717
H       13.96007400      11.68828600       9.86496400       0.39065185      -0.37058372      -0.91339197       0.40931430      -0.37337762      -0.89468861
H       13.15813900      11.14281200      10.96068300      -0.43022170      -0.78890373      -1.63279014      -0.43603340      -0.77985960      -1.64907455
O       14.09081000      15.27660600      13.70163100      -0.38232199      -0.02166443       0.46538529      -0.38985112      -0.04308218       0.45486140
H       14.93729700      15.01416800      14.08320200      -0.25516077       0.04124780       0.23204100      -0.23716301       0.05578344       0.23462322
H       13.43927500      15.34814700      14.42550800       0.76765464      -0.09967124      -0.42146349       0.75463957      -0.10570459      -0.42751545
O       11.97670100      12.05077100       7.70315600      -2.41897904      -0.28302068      -4.22401562      -2.39235711      -0.30634823      -4.21776199
H       12.19421000      11.97987900       8.59008900       0.30222934      -1.06283088       2.77526588       0.27415484      -1.05568492       2.75523996
H       11.19455900      11.46801200       7.41553700       2.08442146       1.24831089       1.35674250       2.08497477       1.26285088       1.36438966
O       11.43608800      14.81562800      11.95633000      -0.73114194       0.11529938      -0.34769781      -0.73070520       0.13458103      -0.33969089
H       10.81032300      15.01859100      11.24918400       0.03691585      -0.33534253      -0.32958064       0.03491804      -0.34649599      -0.33096135
H       11.17897200      15.49052000      12.58083800       0.20153054       0.35114772       0.66096202       0.21103749       0.33978158       0.66631788
O       15.06005000      12.90258500       9.70093100      -1.84295542       0.86910590      -1.00534240      -1.84680831       0.86362255      -1.00646555
H       14.48992600      13.54949300      10.16577800       0.28195043       0.42806151      -0.43742300       0.27933764       0.42767110      -0.44192296
H       15.71479500      12.72276000      10.32563200       1.91311769      -0.56816638       1.47497592       1.91786206      -0.57403845       1.46978569
O       13.91783600      15.36855400      10.87248600      -0.98393395      -0.60959092      -0.24336306      -0.97748405      -0.61551249      -0.23381889
H       14.31039600      15.28748700      11.74379900       0.11859075       0.20617662       0.29649578       0.11888738       0.21466088       0.30219385
H       12.97058100      15.16535900      11.08977100       1.09362596       0.32046505      -0.23065070       1.08137894       0.31896371      -0.23741792
O       12.86849000       8.47057700       8.77102900       1.42365186      -1.40005217       0.61969818       1.41702139      -1.41543949       0.61568898
H       13.09409800       9.36038700       9.13252800       0.21118884      -0.75440785      -0.02482493       0.22134623      -0.74340749      -0.02610794
H       13.57297900       7.79198100       9.06029300      -1.66000979       2.08638856      -0.60345117      -1.65547347       2.08153725      -0.60499752
O       15.00291400      10.29005300      13.28707600      -1.48182333      -0.75627010       0.65640094      -1.48848534      -0.74064565       0.65375096
H       14.87356700       9.83772400      12.43942800       0.10912513       0.17433119       0.12620801       0.11704641       0.15628143       0.11011207
H       14.24113800       9.93984600      13.83278300       1.32358745       0.62729265      -0.86723614       1.32044840       0.63310349      -0.86533195
27
Properties=species:S:1:pos:R:3:REF_forces:R:3:MACE_forces:R:3 REF_energy=-18719.427714073325 charge=0 spin=1 external_field="0.0 0.0 0.0" config_type=ORCA_DFT source_file=C_DFTprod_cutcluster_0095.out orca_step=0 MACE_energy=-18719.44921875 pbc="F F F"
O        9.46521800      10.72971300      13.65473900      -0.18327977      -1.52580339      -0.74794857      -0.18709192      -1.51111972      -0.75492829
H        9.46992600      11.49813400      13.11815600       0.06691600       1.00654336      -0.85038297       0.06726111       1.00253189      -0.83804041
H        9.53236700      11.04433000      14.52932700       0.10547787       0.51429642       1.67448711       0.11272646       0.50722802       1.66536069
O       12.60096800      11.25621500      12.33048600      -0.72140558       2.01663905      -0.84132770      -0.66377723       2.04968023      -0.83351505
H       12.00000000      12.00000000      12.00000000       1.30045035      -1.34099783       0.89796232       1.27837276      -1.31415367       0.88374037
H       13.23217400      11.57595900      13.00701300      -0.55529415       0.09251277      -0.08238571      -0.57310319       0.04745051      -0.06156287
O       15.31886000      12.73828100      11.44977200      -0.63681911      -0.56862085       0.00317506      -0.64119637      -0.57262301       0.02404352
H       14.76804300      13.52241900      11.45172300       0.10463372       0.40045043       0.00880608       0.10449298       0.41199407      -0.00650481
H       14.64092900      12.03953700      11.36622100       0.45985922       0.09058876       0.00801459       0.46387729       0.08213130      -0.00934695
O        8.83205000      11.38349900       9.93183900      -0.55935711      -0.72580926       0.06410794      -0.52587247      -0.75079542       0.05426174
H        9.12245700      12.11121400      10.49668700       0.11532406      -0.41215481       0.07219787       0.08969164      -0.41301394       0.05511763
H        8.69754800      10.56274000      10.45940500       0.31182516       1.02352056      -0.23276517       0.30931658       1.04979038      -0.24299459
O       11.18131000      10.35717500       9.03574000       1.55664259      -0.48347727      -0.59092949       1.57319999      -0.50206244      -0.58412540
H       11.92495600      10.97309300       9.02029000      -0.30583917      -0.08647315      -0.10784868      -0.31483454      -0.08594306      -0.11864561
H       10.37500000      10.85554800       9.07720500      -0.97417563       0.70136398       0.22397833      -1.00570416       0.70745999       0.23222741
O       10.46792300      13.41940900      11.09330400      -0.24017545      -0.40787588       0.60998388      -0.23956639      -0.41895354       0.62657130
H        9.90571400      13.89475000      11.73082600       0.63503512       0.25683970      -0.61352244       0.64358175       0.26170743      -0.60331929
H       10.97836700      14.02219800      10.54306100      -0.34450826       0.30550467       0.21405803      -0.34915102       0.30381489       0.21124537
O       12.64475700       8.84712200      14.78228000       2.07414867       0.73630708      -0.53134432       2.05672216       0.75701517      -0.56373167
H       12.79275400       9.75998900      14.44100600      -0.75066093      -1.13062059       0.59720051      -0.73418057      -1.14269769       0.61012352
H       11.75848400       8.68752500      15.03154100      -1.44560661       0.21262269       0.03862733      -1.44391012       0.20488046       0.05812375
O       11.39755800       9.10432500      11.42488900      -0.30310660      -0.32293799       0.81014089      -0.26156217      -0.30354816       0.83272016
H       11.44739400       9.52244100      10.55642400      -0.02707130       0.12459485       0.06826285      -0.04411521       0.13933152       0.06418890
H       11.62591700       9.77896700      12.09625300      -0.08516584      -0.68016040      -0.80241847      -0.10323183      -0.71336925      -0.80225700
O       14.20033700      11.16888700      14.43739100       1.27386889       1.21477861       0.49734781       1.27209711       1.22092569       0.48922691
H       14.59966600      11.93842700      14.90871600      -0.65524471      -0.77370917      -0.36286753      -0.65774357      -0.77375793      -0.35885984
H       14.98832600      10.76085600      14.04839700      -0.21647158      -0.23792224      -0.02460952      -0.22629917      -0.24390399      -0.02912018
27
Properties=species:S:1:pos:R:3:REF_forces:R:3:MACE_forces:R:3 REF_energy=-18720.05333767982 charge=0 spin=1 external_field="0.0 0.0 0.0" config_type=ORCA_DFT source_file=C_DFTprod_cutcluster_0407.out orca_step=0 MACE_energy=-18720.07421875 pbc="F F F"
O       11.70711000      15.32774700      12.19039100      -2.22991614       0.68690944       1.77188210      -2.22127891       0.65978229       1.75692201
H       11.70616300      16.11973000      12.81884000       0.11778168      -1.64390579      -1.28171101       0.11210635      -1.63942957      -1.28174663
H       10.82973900      14.84952700      12.42753100       2.06849631       1.05838230      -0.44040291       2.07898426       1.09528923      -0.43528119
O       11.97279200      14.50205400      15.77471900      -2.06264679      -0.69807276      -1.09888489      -2.05603695      -0.69856691      -1.08565092
H       11.08435500      14.26953000      16.13270100       1.02428351       0.41396410       0.54957627       1.03157640       0.41428831       0.53874421
H       11.68331600      14.25284000      14.85581000       1.08388245       0.29888434       0.64131093       1.06999016       0.30131650       0.63562042
O       13.73387700       9.53388000      12.23151400       0.38785562      -0.67201252      -0.65803955       0.41720241      -0.67175651      -0.65381891
H       12.96644400      10.10790300      12.24729700      -0.07220949       0.50281248       0.57340464      -0.09186078       0.49928069       0.56383985
H       14.08290600       9.40618600      13.11606300      -0.41517802       0.24381922       0.21369597      -0.41952282       0.24528229       0.21703736
O       15.61502300      13.16879600      12.37337100       0.10353262      -0.23596368      -0.10433414       0.11327438      -0.24353860      -0.09358990
H       15.21776100      13.70759900      11.64959200       0.47839908      -1.09443051       0.46942552       0.46219790      -1.09387302       0.45830369
H       15.96499000      12.29149000      12.08253300      -0.53854907       1.13758468      -0.31181082      -0.54010206       1.14314151      -0.31292620
O       12.00000000      12.00000000      12.00000000      -0.11540516       0.39475698       1.27431050      -0.09251051       0.39879888       1.28260636
H       12.61478900      12.71040800      11.80871300       0.64604495       0.48614499       0.27062061       0.60371280       0.48129815       0.26404011
H       11.93003100      11.56390100      11.16360300      -0.46285301      -0.67881510      -1.30504172      -0.44631836      -0.69722641      -1.30212295
O       13.77751800      14.39190500      10.60951400      -1.55683877       0.20616891      -0.75713193      -1.53233409       0.19275881      -0.77307653
H       13.52390900      14.00246700       9.73542900       0.26834662       0.80576353       1.19209834       0.25733155       0.80571330       1.20324314
H       13.00029400      14.94605900      10.94828100       1.15894155      -1.04003085      -0.51973209       1.14921296      -1.03166628      -0.49754301
O       10.27879400      13.33941200      13.71120500      -2.30249607      -0.67727254       1.26116163      -2.31760669      -0.68762439       1.25912046
H       10.73875100      12.82043200      13.03658500       0.13876749      -0.76039173      -0.10421803       0.14631300      -0.76133204      -0.11246689
H        9.51549800      12.78451200      14.11254800       2.14530786       1.31435405      -1.32433219       2.15205312       1.31327486      -1.31723070
O       16.32926700      10.29941900      11.51778500      -0.73015293      -0.44222556       0.76335323      -0.72360092      -0.44002849       0.77373379
H       15.35530200      10.07961700      11.53160300       1.08550868       0.21584968       0.07435292       1.06587803       0.21420914       0.06146080
H       16.66142800       9.92472200      12.36178000      -0.23010131       0.35295906      -0.83564983      -0.23229693       0.35674208      -0.83769119
O       11.78743200      10.92631800       9.55388400       0.91211367      -1.66367408      -0.53759632       0.90961564      -1.63618910      -0.51968849
H       12.33502200      10.12275200       9.28520100      -1.00618006       1.75662347       0.39040209      -0.99824119       1.74778986       0.39691988
H       11.98994000      11.64335000       8.94343900       0.10326482      -0.26818217      -0.16670926       0.10226149      -0.26773447      -0.18875898
27
Properties=species:S:1:pos:R:3:REF_forces:R:3:MACE_forces:R:3 REF_energy=-18719.55057958156 charge=0 spin=1 external_field="0.0 0.0 0.0" config_type=ORCA_DFT source_file=C_DFTprod_cutcluster_0260.out orca_step=0 MACE_energy=-18719.54296875 pbc="F F F"
O       12.00000000      12.00000000      12.00000000       3.70638983       0.58095330       1.57922629       3.70621872       0.57517576       1.56836510
H       11.11041700      12.02458100      12.20104500      -3.23401391       0.01908319       0.08828984      -3.24002600       0.02190128       0.09239462
H       12.39037800      12.26539000      12.90387200      -0.30744601      -0.52178018      -1.90388866      -0.30243853      -0.52046919      -1.88978302
O       12.08761900      15.47748300      14.57084000      -1.06208526      -0.46052045       0.92180226      -1.04665828      -0.46855572       0.90125483
H       12.30703800      15.50662700      15.51959300       0.17628899       0.34529142      -0.64137839       0.17155303       0.34705424      -0.62253112
H       12.82706600      15.76238600      14.05378400       0.80054789       0.56410887      -0.24681029       0.77901089       0.56288165      -0.24818897
O       11.06335400      15.84903400      11.11107600      -0.54535077       1.71074214      -1.54502547      -0.57328856       1.74189281      -1.52806556
H       10.28388100      15.82027500      11.64574800      -0.77129964      -0.62564396       1.35691646      -0.75928229      -0.63676333       1.36238098
H       10.67103100      16.51666400      10.47584500       1.26387496      -1.01914290       0.43900407       1.26084518      -1.02117729       0.42770088
O       14.42358600      14.01437900      11.25062400       0.28064925       0.56675243      -0.13628246       0.28524658       0.58127487      -0.13135108
H       13.57717500      13.55498100      11.18674300      -0.18376822      -0.02867356       0.42627341      -0.17608300      -0.03821760       0.42813325
H       14.46243400      14.54176000      12.06860400      -0.19802139      -0.69532554      -0.49692501      -0.20501587      -0.69749528      -0.51405495
O       10.79903700      13.43794400       9.49161100      -0.44730066      -0.55508795      -0.99428711      -0.44389534      -0.57438415      -1.00186205
H       11.27038500      14.12590600       9.95744400       0.36940585       0.48735830       0.12747777       0.37050998       0.48557758       0.12958698
H       11.17652800      13.44375400       8.58884300      -0.22007215       0.09794346       0.87734048      -0.21693763       0.10955993       0.88468432
O        8.06805900      14.98656000      11.15706600      -0.67928479      -0.39381240      -0.30158868      -0.66042930      -0.39347970      -0.31465364
H        8.74966500      14.53317700      10.65210000       0.37336540      -0.18753931      -0.21921325       0.36714169      -0.18609360      -0.20454983
H        7.25421200      14.54707300      10.83864300       0.53108742       0.46914512       0.37755295       0.52256656       0.47016680       0.37745738
O       15.75863200      13.89303300      14.20446300      -0.64258733      -1.40759414      -0.36432082      -0.65850085      -1.40790057      -0.34965935
H       14.86676700      13.42780500      14.27897900       1.32126163       1.57021529       0.18636216       1.34263086       1.57304442       0.18300882
H       15.80483300      14.82695600      14.40732600      -0.73805018      -0.06636326       0.27507170      -0.73055279      -0.08297640       0.26906881
O       12.98901000      15.22084300       8.80338700       1.00308687      -0.02816808       0.55275272       1.00924039      -0.03238887       0.53947437
H       12.88111100      16.17542700       8.70591200       0.21847138      -0.24888656       0.11914277       0.22825570      -0.24840382       0.12741460
H       13.76654300      15.07768100       9.41122100      -1.07356914       0.23862606      -0.64731970      -1.08171976       0.23963502      -0.65420657
O       12.97614800      12.99647600      14.45976900       0.77325800       2.79095146      -1.63620497       0.77654755       2.77772355      -1.65484893
H       12.44736700      13.86623400      14.45683900       0.66129246      -1.28511053       0.04758295       0.64446056      -1.26344156       0.05709678
H       12.51817900      12.38599600      14.96367400      -1.37613041      -1.91752220       1.75844896      -1.36940038      -1.91414118       1.76573312
27
Properties=species:S:1:pos:R:3:REF_forces:R:3:MACE_forces:R:3 REF_energy=-18719.35937390671 charge=0 spin=1 external_field="0.0 0.0 0.0" config_type=ORCA_DFT source_file=C_DFTprod_cutcluster_0209.out orca_step=0 MACE_energy=-18719.36328125 pbc="F F F"
O       14.39152700      13.79429300       9.23595000      -0.43888426      -0.25594696       0.25360309      -0.42915598      -0.24632747       0.25969046
H       14.45834100      13.41607700      10.10891900       1.08095937      -0.05912550       0.89436725       1.08490014      -0.06026595       0.88152313
H       13.50553700      13.45592000       9.09891200      -0.66019548       0.25713301      -1.15120530      -0.66749650       0.24959706      -1.15216660
O       10.81008000      11.00197800      14.38317800       0.30321767      -2.14530313      -0.84427059       0.31420943      -2.14365816      -0.82551330
H       11.24015000      10.23788300      13.92009400      -0.13322861       1.12829873      -0.00492063      -0.11247443       1.12045646      -0.01857923
H       10.45111800      10.46665000      15.09830000      -0.43535280       0.51267240       0.57998883      -0.43763763       0.51358402       0.58747363
O       13.15909000       8.59494800      14.29794500      -0.47694085      -0.17627819      -0.68081444      -0.48737437      -0.16029724      -0.67969561
H       13.45820600       9.15641700      13.57017500       0.15216396      -0.02504975       0.39857542       0.15625465      -0.02210764       0.39500478
H       13.52301100       8.93757600      15.11134100       0.27348312       0.32505133       0.18083506       0.26752600       0.32076895       0.18190902
O       10.88809000      13.79919200       8.74661000      -0.57584436      -1.59082006      -0.47666914      -0.58281362      -1.59483933      -0.47596553
H       11.24417100      13.92087100       9.62136800       0.09868368       0.11364652       0.69730123       0.09683146       0.11348554       0.70686388
H       10.52039400      12.87583500       8.79808700       0.50172783       1.40851290      -0.08704810       0.50739294       1.41355491      -0.09412056
O       12.67012400       8.73574100      10.68627400       0.83995818      -1.33840446       1.61283467       0.83766830      -1.32940722       1.62391639
H       12.17673300       8.39240300       9.95317800      -0.48813107      -0.06785810      -0.74112831      -0.49075931      -0.07979965      -0.74987382
H       12.87668300       7.90277400      11.20052700      -0.28385233       1.42797389      -0.74363868      -0.28506312       1.43281174      -0.74647409
O       11.94259100      13.04526700      15.68414100      -0.48755638      -0.95952081      -0.74702755      -0.50053442      -0.95760673      -0.75633490
H       12.64099200      13.41839200      15.13914000       0.13002065       0.30903876      -0.06963617       0.13122012       0.29694414      -0.06099059
H       11.55232500      12.33845400      15.09028600       0.62336858       1.08601560       1.07601771       0.63166749       1.08681142       1.08076763
O       15.45335300      11.98046800      11.76320200      -0.85700197      -1.82173656      -0.87650266      -0.84846187      -1.82591879      -0.87932575
H       15.32758300      11.10744800      11.28198200       0.03189670       1.57425316       0.85413272       0.01888943       1.55909038       0.86606979
H       16.37010600      12.17153600      11.59124800       0.62256316       0.34233619      -0.00681692       0.62945563       0.35224608      -0.00826596
O       13.66279400      14.15065400      13.44252000      -0.79368876       2.18291920      -1.96075000      -0.78010035       2.18277931      -1.96308708
H       13.43224100      14.89374500      12.75525900       0.64796175      -2.17117625       2.04517635       0.63274813      -2.16131926       2.04548717
H       14.09370400      13.47401100      12.91296500       0.29307477      -0.14948323      -0.15094706       0.28495136      -0.15404780      -0.14619645
O       11.19927200      12.35195600      11.52741700       1.83147215      -0.67218299       0.92152504       1.85087502      -0.65941596       0.94284236
H       12.00000000      12.00000000      12.00000000      -0.54622376       0.11742383      -1.36617140      -0.56527978       0.10887900      -1.38557243
H       10.81401700      12.65580300      12.34324400      -1.25365112       0.64761059       0.39318958      -1.25743890       0.64400268       0.37061346
27
Properties=species:S:1:pos:R:3:REF_forces:R:3:MACE_forces:R:3 REF_energy=-18719.413550080524 charge=0 spin=1 external_field="0.0 0.0 0.0" config_type=ORCA_DFT source_file=C_DFTprod_cutcluster_0061.out orca_step=0 MACE_energy=-18719.431640625 pbc="F F F"
O       11.08751700      12.17533100      11.71331500      -0.72947247       0.57454940       0.39699224      -0.72561443       0.56400800       0.41057637
H       10.82524600      11.86187700      10.82467300       1.05410836      -0.37840106       0.68139021       1.00775123      -0.38728839       0.66070265
H       12.00000000      12.00000000      12.00000000      -0.32347771      -0.44078117      -0.71281670      -0.30303240      -0.43364471      -0.69179660
O        9.05997500      13.85643500      15.50710600      -2.55153073       2.28936802       1.71981376      -2.55183625       2.28390241       1.70694137
H        8.09484300      13.66203700      15.56228700       1.20958874       0.25169744      -0.04992800       1.20807433       0.25262907      -0.04402718
H        9.41217900      13.15987300      15.03939000       1.36709720      -2.60232678      -1.65122104       1.36484146      -2.59974837      -1.64500964
O       12.63321600      12.99844100       9.24101700      -0.22634282      -0.69331411      -0.23541665      -0.20634538      -0.68431342      -0.23617215
H       12.14025700      12.15340100       9.18020800       0.44266522       0.73846891      -0.40417467       0.43689507       0.73050523      -0.40857446
H       12.33429200      13.30439200      10.09385900       0.14339547       0.43070841       0.44938583       0.13756394       0.43358064       0.45280564
O       12.16868200      11.09391600      16.45121000       1.10487474      -0.19332656      -0.07947733       1.09077382      -0.20673248      -0.09562019
H       11.59087900      11.07582200      15.67768500      -0.04701499       0.07784838      -0.23420628      -0.03590190       0.07787420      -0.22966903
H       13.06911300      10.94561200      16.09033300      -1.00304177       0.14388439       0.33747140      -0.99804860       0.15323742       0.34251356
O       10.87000800      10.88540600       9.19562400      -2.36842611      -1.76111488      -0.87504710      -2.35771656      -1.77906370      -0.85485017
H       11.32110900      10.02218100       9.01559200      -0.66365392       1.00637742       0.27774185      -0.67247760       1.01915789       0.25756478
H        9.87679500      10.73012200       8.96691900       2.72049516       0.36400236       0.46336527       2.71968365       0.36415595       0.46941108
O       10.93964700      15.30409400      11.56507100       0.23246713      -0.83740790      -1.12086623       0.22291815      -0.83974230      -1.13181829
H       10.94344800      14.33846100      11.27699100      -0.06516533       1.88471739       0.47247968      -0.05687072       1.88697720       0.47618845
H       11.07736200      15.88703300      10.78168700      -0.24504790      -1.06372665       0.72109041      -0.23892802      -1.06011379       0.72578716
O       14.01268100      14.76462100      12.50146000       0.24705182       0.38971730       1.91417817       0.25010639       0.38463691       1.91731691
H       13.97878500      15.34203100      13.33327600      -0.13799153      -0.95381532      -2.27194463      -0.12715283      -0.95033300      -2.28110194
H       13.85883600      15.28453700      11.70548800      -0.14506520       0.28086090       0.46600251      -0.15444525       0.28190249       0.47035578
O       10.35858500      10.81853500      14.26661900      -0.45967163      -1.07961730      -0.61254249      -0.45491916      -1.06147981      -0.60733491
H       10.17064400       9.84348000      14.31915600       0.25698307       1.55233306      -0.30323778       0.25520793       1.55219364      -0.30633336
H       10.37064000      11.08672600      13.31477000       0.12751001      -0.32625291       0.82650359       0.12199841      -0.33260828       0.80520302
O       13.77541000      11.63422200      13.27211100       0.44802618       1.38797091       0.33535215       0.43233320       1.38703728       0.32533103
H       14.43370800      11.60546200      14.00409500      -0.74189218       0.04569133      -0.87887944      -0.71646929       0.05211613      -0.87064278
H       13.72080300      12.60510600      13.04586500       0.35353124      -1.08811099       0.36799128       0.35161111      -1.08884680       0.38225323
27
Properties=species:S:1:pos:R:3:REF_forces:R:3:MACE_forces:R:3 REF_energy=-18720.54863886981 charge=0 spin=1 external_field="0.0 0.0 0.0" config_type=ORCA_DFT source_file=C_DFTprod_cutcluster_0008.out orca_step=0 MACE_energy=-18720.55859375 pbc="F F F"
O        8.40734300       7.77986100      11.45650800      -0.92136990       0.93625860      -1.51429107      -0.90208131       0.94673872      -1.50924003
H        8.04423000       7.44241000      10.60646200       0.50632265       0.13151867       1.08228549       0.49404022       0.12677261       1.07840586
H        8.79955300       7.06470200      11.92271600       0.44726323      -1.07995777       0.37714996       0.44436857      -1.07790542       0.37564686
O        8.09893300      12.07424800      15.31086900      -0.06676651      -0.32868893       1.07495245      -0.06907388      -0.37220132       1.04418778
H        8.08121100      11.12568900      15.59857100       0.13077439       0.52085659      -0.59487238       0.11821984       0.55279160      -0.60290277
H        7.45971300      12.51513900      15.88871000       0.05869994      -0.04027675      -0.25677121       0.07032920      -0.04379159      -0.24767908
O        8.13007600       9.51732000      14.60650700      -0.27286863      -0.97485266       0.51243653      -0.23854920      -0.94589114       0.54789853
H        8.06488600       8.53301600      14.75786200       0.57480425       1.83674420      -0.68399988       0.56502593       1.83498287      -0.71686906
H        8.82945200       9.76078700      13.96132100      -0.10351329      -1.03312923       0.07125988      -0.11894478      -1.04796958       0.09321863
O        8.68277300      15.06537300      12.19681800       1.70428651       1.27309221       1.77200063       1.70170045       1.26204193       1.77233148
H        8.11357700      14.31906600      12.12655300      -0.76266608      -1.31252049       0.01948351      -0.75799257      -1.31203580       0.01486077
H        9.04768100      15.02469800      13.14162400      -0.87390985      -0.27336377      -1.76199132      -0.86955816      -0.27378616      -1.75736690
O        7.44220700      12.23150100      12.66471800      -0.04739058      -0.30924578      -0.24809651      -0.04712424      -0.29694587      -0.22354761
H        7.69920100      12.00226000      13.58636400      -0.31903922      -0.05056188      -0.72283306      -0.30934116      -0.04589728      -0.72716224
H        7.25244400      11.41718700      12.16015700       0.27020373       0.55527456       0.69760251       0.26687622       0.54280859       0.68666804
O        9.98970800      14.25268800      14.75085900      -0.94774819      -1.13762170       0.89803935      -0.94919485      -1.14532959       0.88717490
H        9.48945000      13.46308300      15.17547200       0.99525159       1.74794333      -0.95799424       0.97781301       1.74437642      -0.95315087
H        9.92242400      15.01218100      15.34951300      -0.07309559      -0.51374939       0.03730229      -0.06700665      -0.51120275       0.04373946
O       10.43249400       9.57638400      12.72213700       1.25770976       2.46447368       1.54622438       1.22534966       2.46418810       1.56378293
H       10.97513900      10.45246400      12.72310000      -1.15248741      -1.90015784      -0.24957001      -1.15410566      -1.90187407      -0.26039767
H       10.42176600       9.30406500      11.82186000      -0.22419682      -0.28826727      -1.16175038      -0.20669402      -0.28791600      -1.17009890
O       12.00000000      12.00000000      12.00000000       0.31542579       1.20835980       0.18580778       0.33294791       1.21522665       0.19649623
H       12.96670800      12.02459100      12.09125100      -0.40145465      -0.23319239      -0.05594798      -0.41091645      -0.23407120      -0.06245055
H       11.78441000      12.97631400      12.03437900       0.06806837      -0.99619585      -0.01294545       0.07697386      -0.99744886      -0.01908402
O       11.63072700      14.94885300      12.08352000       0.06543669      -0.62553638      -1.41783890       0.04239656      -0.63472396      -1.41360819
H       11.57705700      15.16558000      12.99516700      -0.09410639       0.20903955       1.34886170      -0.09711731       0.21735278       1.33326471
H       10.70311800      14.86537500      11.80493200      -0.13363387       0.21375690       0.01549589      -0.11834170       0.22170995       0.02588224
27
Properties=species:S:1:pos:R:3:REF_forces:R:3:MACE_forces:R:3 REF_energy=-18719.45937948182 charge=0 spin=1 external_field="0.0 0.0 0.0" config_type=ORCA_DFT source_file=C_DFTprod_cutcluster_0227.out orca_step=0 MACE_energy=-18719.48046875 pbc="F F F"
O        8.41864500      12.01392100      10.34747700       0.33268226      -1.49751992       0.30111420       0.32029551      -1.49921131       0.29920128
H        8.70957300      11.06485500      10.27401900      -0.39617535       1.49412303       0.01464418      -0.38856179       1.49464405       0.01337878
H        9.11107100      12.44731100      10.85965000       0.12637122       0.01442343      -0.41121903       0.12149484       0.01720066      -0.41073918
O       11.60056100      10.38510600      12.52339700       1.14549807       0.52906437      -0.91533851       1.11832333       0.53588438      -0.91350782
H       10.72765700      10.25518300      12.84570700      -1.25011154      -0.63123991      -0.09422544      -1.23908961      -0.62986553      -0.10252792
H       11.80543200       9.86996800      11.71941100      -0.16233330      -0.17011073       0.21662836      -0.15280601      -0.16223210       0.23890519
O       12.60938800      10.07294500      15.05335700      -0.80703304      -1.06878550      -2.13371790      -0.79768741      -1.07398605      -2.14674926
H       12.30317100      10.86250500      15.46133100      -0.32110407       1.30173245       0.94433351      -0.34021980       1.31427145       0.92930996
H       12.10578100      10.10472500      14.17885100       1.57836225      -0.28466084       1.70222186       1.57898986      -0.28517684       1.71576977
O        9.34495800      12.99879400      13.88821100      -0.32459882      -0.65983727      -1.83159927      -0.33904558      -0.66204906      -1.83974135
H        9.18736300      12.22453700      13.27730200       0.02744663       1.18302507       1.06606173       0.04195066       1.16942596       1.07829869
H        9.04300700      13.76359800      13.35321900       0.11675463      -0.51077863       0.60508418       0.13199660      -0.50173628       0.60721737
O       12.22025200      12.98258700      11.91224500      -0.92142662      -1.04899289       0.55871541      -0.92651463      -1.05188227       0.58583963
H       12.00000000      12.00000000      12.00000000       0.49278497       1.16654975       0.18012656       0.50402820       1.14152992       0.15244508
H       11.45261300      13.41124600      12.32044500       0.29147226      -0.03705577       0.23967275       0.30858010      -0.00950209       0.22384548
O       13.18192000       9.41098300      10.06197000       1.44134558       0.85398735      -0.13472720       1.45227122       0.85479188      -0.14391446
H       14.13779300       9.32072000      10.38801200      -2.06809038       0.49253532      -0.86942246      -2.08040333       0.49755070      -0.88082618
H       13.15885600      10.14194200       9.37896800       0.38291514      -1.19118241       1.23898473       0.38748771      -1.20109510       1.25000525
O       11.60703800      12.85457300      15.65531400       1.56313658       0.54951930      -0.43796385       1.57319212       0.54525179      -0.42949623
H       12.42627300      13.28385900      15.26007100      -1.83514513      -0.83782442       0.52942088      -1.82397461      -0.83320010       0.53831685
H       10.88433300      12.86814300      15.00760300       0.33096842       0.33012576      -0.02837110       0.30671415       0.32758006      -0.04232941
O       15.00659800      12.78760800      11.87052900      -1.44293112      -0.56257402       1.04224585      -1.47401142      -0.57272130       1.02560997
H       14.16318000      13.07053400      12.31686800       1.10456066      -0.46242857      -0.81947579       1.11969423      -0.44910645      -0.82775313
H       15.41127400      13.58967600      11.58987400       0.51287470       0.94506519      -0.34757764       0.52115571       0.94944465      -0.33015648
O       11.49922800      13.56608100       9.45097600      -0.06232319       1.00205205      -0.59645422      -0.04619734       0.98442435      -0.61197990
H       11.71090000      13.37282000      10.39220700       0.49103400       0.54970313      -0.74007914       0.47728798       0.54511231      -0.71526825
H       11.79644100      14.47873200       9.20044500      -0.34693471      -1.44891537       0.72091727      -0.35495129      -1.44534707       0.73684651
27
Properties=species:S:1:pos:R:3:REF_forces:R:3:MACE_forces:R:3 REF_energy=-18719.47248480155 charge=0 spin=1 external_field="0.0 0.0 0.0" config_type=ORCA_DFT source_file=C_DFTprod_cutcluster_0085.out orca_step=0 MACE_energy=-18719.484375 pbc="F F F"
O       12.40925600      15.86547700      15.47139500      -0.36904121      -0.95228027      -1.11313354      -0.37160125      -0.94610739      -1.13017392
H       12.18776100      15.31168400      14.67618000       0.20201077       0.77855468       1.01106814       0.19913353       0.75947517       1.00992942
H       12.97070700      16.55164500      15.10612600       0.10715937       0.17200424      -0.00900945       0.11169797       0.17679076      -0.00005431
O       12.00000000      12.00000000      12.00000000      -0.78696496       0.91570550       1.11753630      -0.79429102       0.91783172       1.12507629
H       11.53585700      12.73247800      12.47869100       0.28728378      -0.11555418      -1.09393511       0.29039514      -0.11771297      -1.09398890
H       12.11033500      11.41435600      12.75860400       0.43901456      -0.71077247      -0.37523798       0.44281337      -0.70618886      -0.38912353
O       13.46782900      10.43603100       8.42973400       2.63658221       0.19978486      -1.31840117       2.63119364       0.19787091      -1.31899583
H       14.19726600      10.64070100       7.69361600      -2.30603314      -0.80961391       2.74785679      -2.29910111      -0.80645931       2.74922371
H       13.93568900      10.06499900       9.22627400      -0.43552167       0.67290912      -1.42681283      -0.43323308       0.66883790      -1.42281353
O       13.28365900      14.56935200      10.45237300       0.19077618       0.07178572      -0.35908040       0.17095983       0.09305510      -0.36280465
H       13.57249300      13.93585000      11.11694300      -0.10733817      -0.18715678      -0.14860273      -0.10781819      -0.19678241      -0.14504607
H       13.51150600      14.18577400       9.58844600      -0.23435715       0.09001762       0.53030585      -0.21069467       0.07955821       0.53077376
O       11.10048900      13.10968800       7.53208100      -1.16684121      -1.12493979       0.58983430      -1.17124665      -1.12487006       0.59128362
H       11.40547200      12.26753000       7.91741800       0.40534380       0.45365088      -0.24327929       0.39738816       0.46424162      -0.25568885
H       10.14872400      13.00610700       7.78273400       0.89330883       0.75507685      -0.26087602       0.89844656       0.74833065      -0.25801945
O        8.29920800      13.29298900       9.43296100       0.99548607      -0.94660652       0.86328436       0.98889643      -0.94114113       0.85385185
H        8.90048100      12.61075300       9.87792000      -1.06860064       1.29773578      -0.84004241      -1.05794847       1.29582524      -0.82969612
H        7.90967700      12.74165100       8.75261300      -0.33478980       0.04887431      -0.19659325      -0.32727608       0.05379541      -0.19354539
O       12.77101400       9.54069100      13.23050000      -0.38178514      -0.45838351       1.03116075      -0.38690588      -0.46738571       1.03607142
H       12.47700600       9.17622300      14.08662500      -0.12261561       0.42145069      -0.45589025      -0.11946146       0.41903937      -0.44748396
H       13.51783800       8.97164000      13.05567000       0.48235328      -0.05207533      -0.43584974       0.48258677      -0.04577083      -0.44431013
O        9.85574200      11.18594500       9.68965000       1.96615163      -0.82142248       0.88731008       1.92718351      -0.81675702       0.89355576
H       10.71418000      11.15210700      10.23491800      -1.67086401      -0.00657637      -1.00643568      -1.66221666      -0.00671358      -1.00830424
H        9.76123700      10.34461900       9.20946200       0.25362089       0.44006450       0.45139514       0.27640477       0.43168122       0.45488983
O       10.67491900      14.57800500      12.99725600      -0.86646219       0.23695422       0.07498854      -0.87404418       0.24999899       0.06931397
H        9.93790500      14.63688200      13.62599600       0.38910255      -0.21035148       0.16512397       0.39470398      -0.21813910       0.16719615
H       10.25245900      14.99390500      12.22804900       0.60302118      -0.15883587      -0.18668416       0.60403502      -0.16230395      -0.18111691
27
Properties=species:S:1:pos:R:3:REF_forces:R:3:MACE_forces:R:3 REF_energy=-18719.515461911597 charge=0 spin=1 external_field="0.0 0.0 0.0" config_type=ORCA_DFT source_file=C_DFTprod_cutcluster_0266.out orca_step=0 MACE_energy=-18719.525390625 pbc="F F F"
O       12.18123200      15.30650200      14.14139700       0.33434865      -0.44879180       0.29906874       0.34656847      -0.44736117       0.29631370
H       11.52098800      15.73645600      13.59717500       0.08033428      -0.10391412      -0.43599480       0.08125836      -0.11385999      -0.43786469
H       12.63247400      14.60609300      13.63981400      -0.40607852       0.53794887       0.11495079      -0.42951387       0.53975779       0.11660159
O       15.35698900      13.20025000      11.92581900      -0.54092940       0.73825818      -0.02953303      -0.53285408       0.73504186      -0.04480943
H       14.63903600      13.78922300      11.64503300       0.52082707      -0.01223454       0.14864556       0.52271795      -0.01781382       0.16434023
H       15.14328100      12.38408000      11.46028700       0.04969115      -0.48456068      -0.01828893       0.05736961      -0.47486535      -0.02560597
O       14.77488700      10.85338700      10.56774000       0.08208916       0.69354104      -0.69951135       0.09422614       0.69807887      -0.70011699
H       14.04537400      10.28267500      10.78874500      -0.22100515      -0.53478986       0.64844070      -0.24604020      -0.55409265       0.62469882
H       15.56016700      10.31579100      10.52790700       0.34762670      -0.32146521       0.08312012       0.35561728      -0.31908849       0.09238642
O       12.00000000      12.00000000      12.00000000       0.10775345       1.92188644       0.18666277       0.06031286       1.92151427       0.17503347
H       12.22937500      12.84813400      11.56563600      -0.21077741      -0.92948826       0.13614429      -0.22339889      -0.91527951       0.15675002
H       12.09561900      11.27729200      11.37849300       0.11131366      -0.44936361      -0.84554904       0.14174502      -0.46955928      -0.87712657
O        9.92946000      12.63877700       9.31679100       0.20011592      -0.59612975       1.34561250       0.20124447      -0.60047317       1.35110164
H       10.06145900      11.86175700       9.91343800      -0.25108362       0.74490654      -0.84736187      -0.23865888       0.73258781      -0.85044169
H        9.79565900      13.35047400       9.97694000       0.11538299      -0.24004721      -0.43672047       0.11770090      -0.22558695      -0.42535776
O       12.16612300       9.77929700      10.48875200       0.37775124      -0.20846681      -1.06669067       0.38042998      -0.18947989      -1.05230761
H       12.57304400       9.89921100       9.58866900      -0.95607275      -0.60560740       1.07891457      -0.95914060      -0.61157793       1.08649969
H       11.70452700       8.91970300      10.57314200       0.45808011       0.75628404      -0.37585104       0.45724118       0.75831681      -0.38672394
O        9.75175900      14.65572100      11.49529600      -0.74690537      -0.72190797       2.44138085      -0.74936056      -0.72972655       2.42622137
H        9.74012600      14.26831400      12.43885900       0.24514859       0.68941468      -2.13682014       0.26296222       0.69047749      -2.12259674
H        8.82498000      14.95236400      11.42832200       0.47902895       0.01059295      -0.23297971       0.47250497       0.02067911      -0.23321125
O        9.84314800      10.74669900      12.83029200       0.74838303       2.11200488       2.83879779       0.79459798       2.07688904       2.84422016
H       10.53963700      11.39301300      12.50418900      -0.98594913      -0.95430250       0.19704077      -1.01012743      -0.95370942       0.20983656
H        9.81590400      11.08967100      13.81556300      -0.21630975      -1.35445591      -2.77825736      -0.25057238      -1.31619525      -2.78236914
O       13.68340600      10.45901500      13.47886900      -1.00415742      -0.42428409      -0.11693676      -1.01008618      -0.43354714      -0.08896285
H       13.12744900       9.69553300      13.71645500       0.46971168       0.30001706       0.05139301       0.47869042       0.30091193       0.03846997
H       13.02038700      11.05879900      13.06920200       0.81168195      -0.11504489       0.45032258       0.82456583      -0.10203850       0.44502059
27
Properties=species:S:1:pos:R:3:REF_forces:R:3:MACE_forces:R:3 REF_energy=-18719.671554764107 charge=0 spin=1 external_field="0.0 0.0 0.0" config_type=ORCA_DFT source_file=C_DFTprod_cutcluster_0055.out orca_step=0 MACE_energy=-18719.677734375 pbc="F F F"
O       12.91504600      14.47177700      12.59787700       1.62679145      -1.27743810       0.62389720       1.61881697      -1.27683437       0.63433099
H       12.34753300      15.19504400      12.46530300      -1.06590849       1.60778035      -0.10241625      -1.06333649       1.61678135      -0.12226938
H       13.55651500      14.70554900      13.29369500      -0.53971470      -0.06032590      -0.49014959      -0.53565896      -0.07107417      -0.48368725
O       10.54160900       9.84826400      13.13369200       2.35789625      -0.23052795       0.98431221       2.35279584      -0.20495352       0.99813372
H       10.89445300      10.64612600      12.72906400       0.09006102       0.23043653      -0.24541382       0.08678371       0.22948271      -0.24473441
H        9.62124500       9.92542200      13.04810200      -1.90956921       0.12754730      -0.45808850      -1.90315604       0.11294553      -0.46344340
O        9.81945700      11.06948200      16.21227800       0.97962591      -0.11287488       1.85451746       0.96629840      -0.12065269       1.85748959
H       10.19295700      10.97041200      15.33005800       0.42663244      -0.33822952       0.16498796       0.43615744      -0.34336227       0.15595888
H       10.51342900      10.86594200      16.92505700      -1.40395824       0.33611551      -2.12859785      -1.39427626       0.34238631      -2.12860394
O       12.00000000      12.00000000      12.00000000      -0.22909796       0.09815398       0.44080035      -0.20308459       0.07479796       0.45222014
H       12.25153400      12.90176100      12.24120600       0.28819312       0.25785020       0.64060089       0.28674704       0.26796147       0.65032494
H       11.76271700      12.13791200      11.09392500      -0.22718562      -0.41570180      -1.26020379      -0.24022028      -0.41501004      -1.28044736
O       14.19514600      10.42278700      11.98444800       0.73838962       0.48491251       1.52570111       0.74240184       0.48369306       1.50726902
H       14.56355200      10.54698700      12.90572800      -0.58081554      -0.29990399      -1.64082946      -0.58903480      -0.29443604      -1.63531947
H       13.38801500      10.98020700      11.97354300       0.20625715      -0.20723515      -0.01941209       0.20460752      -0.20493978      -0.00802768
O        8.21390100      10.34934300      11.75448400      -0.82365255       0.00596635       1.54101805      -0.83132875       0.00038791       1.54304254
H        8.24684300      10.06446600      10.83623600      -0.49705588      -0.58833550       0.39162290      -0.49801278      -0.57628828       0.39119369
H        7.59292800       9.84226200      12.35692600       0.89538654       0.60524493      -1.96059214       0.89301753       0.60182166      -1.96676421
O       13.28034800      11.95408000       8.97839300       1.60896557       1.65796412       0.11920227       1.60521507       1.65139270       0.12809689
H       13.26096800      12.84230000       8.53337500      -0.16450197      -1.27137672       0.46945689      -0.16644758      -1.27187586       0.47206891
H       14.20082700      11.97194500       9.37400700      -1.55004180      -0.38201058      -0.46653704      -1.54588103      -0.37837094      -0.46810824
O       13.91944900       7.61765400      12.54862500       0.17869544      -0.98859562      -0.24001126       0.17234384      -1.00334918      -0.23414439
H       14.04349900       8.43622000      12.06580600      -0.07984387       0.44627381       0.19988580      -0.08075877       0.45739642       0.19838677
H       13.84800100       7.82656500      13.48344200      -0.16539949       0.37292893      -0.01337349      -0.16375141       0.37724823      -0.01582622
O       13.02592900       9.03283200      14.96627200      -1.86193998       0.72909282      -1.41378160      -1.84737945       0.72228014      -1.39461708
H       12.37237100       9.55557600      14.39279000       0.88967025      -1.43926658       0.91958761       0.89308643      -1.42767215       0.89162570
H       13.60655800       9.71006600      15.27147600       0.81212058       0.65155492       0.56381617       0.80405539       0.65024388       0.56585151
27
Properties=species:S:1:pos:R:3:REF_forces:R:3:MACE_forces:R:3 REF_energy=-18719.54546846129 charge=0 spin=1 external_field="0.0 0.0 0.0" config_type=ORCA_DFT source_file=C_DFTprod_cutcluster_0027.out orca_step=0 MACE_energy=-18719.552734375 pbc="F F F"
O       14.40528500      11.78273500      10.93359000      -1.19671589       0.99380632       0.58321320      -1.23445261       0.99853373       0.56502277
H       14.74428600      12.64383700      10.62958300      -0.12503646      -0.59239291       0.26172922      -0.09963050      -0.58910275       0.26993105
H       13.56830600      12.02431800      11.46577000       1.73885880      -0.46158859      -0.93590538       1.77235436      -0.45628178      -0.94485176
O       13.23939600       9.10899800      13.69377900       3.11393814      -1.53369195      -0.53821503       3.11061645      -1.53951335      -0.53609931
H       12.49313900       9.61358600      13.79707900      -3.33935886       1.65139829       0.56348178      -3.34013939       1.65219736       0.55947709
H       13.87365600       9.75443600      13.36474600       0.28791899      -0.15366431      -0.08817018       0.28625435      -0.15514117      -0.08157054
O       10.39993300      14.66228700      13.15698100      -0.84579736      -0.05025689       1.85995607      -0.84196144      -0.05153765       1.85465717
H       10.83912600      15.28096400      13.79969900      -0.68655072      -0.88752128      -0.98774648      -0.68462974      -0.88647985      -0.97640508
H        9.64019000      14.25286700      13.67862000       1.44825398       0.77976844      -0.98373726       1.44083071       0.77289927      -0.99459970
O        8.85029000      11.90390400      12.40117300      -0.97565716       0.07437024       0.52974911      -0.98145580       0.09818050       0.53889382
H        7.86359800      11.85773400      12.38219600       1.36567908       0.21454546      -0.19235561       1.37930894       0.20572974      -0.19689032
H        9.15689100      12.55706300      11.76047200      -0.39204621      -0.17599213      -0.41326239      -0.40321612      -0.18836525      -0.39527836
O       10.80286300      10.31803500      10.12705800       0.65379615      -0.34133151       0.21442771       0.68689990      -0.35543185       0.20451428
H       10.04351100      10.02270300       9.58914400       1.01934082      -0.36515010       0.49353995       1.00966156      -0.35442051       0.49115965
H       11.51931100       9.64444400      10.28172000      -1.49198937       0.66067468      -0.82570552      -1.49511993       0.67059404      -0.81274664
O       14.66793200      13.69122400      14.02588000      -0.50182091       0.18298023       0.10693219      -0.51588523       0.18065408       0.12623531
H       15.24178900      13.74321400      14.79481300       0.04974087      -0.02391723       0.04935547       0.05454529      -0.02455555       0.03843793
H       13.78543400      13.92152100      14.35934400       0.44105350      -0.16450120      -0.16740053       0.44818968      -0.16204935      -0.17635816
O       10.07667500      13.52244000      10.16669200       1.45231390      -0.00156637      -1.79451835       1.46160448      -0.02708732      -1.77736413
H       10.84458100      13.66135100       9.50979500      -1.83051714      -0.34560854       1.71452495      -1.83390319      -0.34496105       1.70204675
H       10.24171100      14.12163300      10.89367300       0.38180828       0.56621702       0.28610030       0.38472462       0.58353204       0.29563755
O       12.00000000      12.00000000      12.00000000      -1.12897040       0.27763340       0.54118507      -1.15981948       0.21675994       0.55775511
H       11.33513600      12.31281200      12.64831400       0.74448092      -0.04963001      -0.47434651       0.74033219       0.00235210      -0.47528735
H       11.47293000      11.82668700      11.19779200       0.06690119      -0.14812574       0.12944631       0.05499849      -0.15965362       0.11436465
O       10.39146400       9.58376500      13.30257700       0.63638958       0.39507009      -0.58360210       0.65026301       0.39857036      -0.55868608
H       10.88088900       9.51603900      12.44612400      -0.78404845       0.24986291       1.02826404      -0.76679564       0.24818572       0.99841523
H       10.15491100      10.52950400      13.37167700      -0.10196543      -0.75138835      -0.37693990      -0.12357502      -0.73360783      -0.39041162
27
Properties=species:S:1:pos:R:3:REF_forces:R:3:MACE_forces:R:3 REF_energy=-18719.785385760635 charge=0 spin=1 external_field="0.0 0.0 0.0" config_type=ORCA_DFT source_file=C_DFTprod_cutcluster_0415.out orca_step=0 MACE_energy=-18719.8515625 pbc="F F F"
O        9.24477100      11.00453100      13.21645500       2.11580841       0.88468283       3.04461569       2.09343863       0.89282238       3.04241538
H        9.46578300      11.00727900      14.22889700      -0.96426686      -0.18638530      -2.96205849      -0.95317817      -0.17910255      -2.96085763
H        8.46063300      10.50784500      13.08323300      -1.20207752      -0.76026349       0.01558227      -1.19189429      -0.76129442      -0.00200074
O       15.76912900      10.54854700      11.93539200       0.17645169      -0.76899187      -0.08803622       0.17719796      -0.77025896      -0.10369599
H       15.09751100      11.07774900      12.37986000      -0.25938602      -0.21501664      -0.23639300      -0.25702319      -0.21487278      -0.22465041
H       15.40158800       9.65846600      11.76358700       0.11316269       0.94728621       0.20616243       0.11554849       0.94646174       0.21504661
O       11.28343200      11.66918800      11.39958600       0.73649096       0.26761941       0.68939226       0.70059478       0.28998643       0.66459668
H       10.77099300      11.08326100      11.97267500      -0.21040162       0.03471313      -0.08957045      -0.18248789       0.01567193      -0.09032162
H       12.00000000      12.00000000      12.00000000      -0.53756336      -0.43564719      -0.82234226      -0.53471780      -0.42751262      -0.78572094
O       12.32879700      11.57307800       8.51108700      -1.33679654       2.17025420       0.02106412      -1.33729815       2.16943550      -0.01226342
H       11.79703800      12.43904800       8.69598300       1.55156708      -2.18445975      -0.27756125       1.53897750      -2.18403816      -0.27179357
H       12.15775600      11.02642500       9.28035800      -0.08991935       0.06680205       0.25078984      -0.09890986       0.06951448       0.27463257
O       13.48748700      12.04048200      13.13047700      -0.27337215      -1.51560213       0.99433658      -0.28336352      -1.51440072       0.99909985
H       13.77664700      12.91017800      13.36871500       0.35919995       0.93006116       0.23882059       0.36028656       0.92934138       0.22646901
H       13.48386000      11.50828000      13.96602400       0.01973533       0.77782906      -1.02527518       0.01343983       0.77511752      -1.03756499
O       11.35848100      14.09197200       9.71802500      -0.14489818       0.24830935      -0.27747142      -0.15056542       0.24023250      -0.25645730
H       10.93028500      14.93297800       9.50514400       0.16010389      -0.26454725       0.16482464       0.15286781      -0.26888844       0.14837264
H       11.13318700      13.90644200      10.63818600      -0.15579734       0.08410871       0.11758257      -0.14491098       0.07927738       0.12871188
O        8.89247200      11.96388100       9.70870800       0.88469589       0.55992275       0.20079489       0.87849367       0.52513295       0.22008643
H        9.85308700      12.11198300       9.96512700      -1.55597755      -0.04151571      -0.63096383      -1.52000523      -0.03110044      -0.62734026
H        8.64008400      12.63708100       9.04776000       0.60906826      -0.54512091       0.43748419       0.60626471      -0.51589346       0.42011198
O        9.18893900      13.88156500      12.05724000      -1.43153399       1.82185242      -1.54001984      -1.42022562       1.83685184      -1.54961073
H        9.42878600      13.01628500      12.31614700       0.30067053      -1.72475223       0.31198226       0.30405736      -1.75746739       0.34056094
H        8.54433300      13.75079200      11.30429100       1.15979793      -0.05160251       1.29346507       1.15970612      -0.05082409       1.27765727
O       11.94997600      15.34283800      13.36429100      -1.28550720      -0.36888725       0.99347567      -1.28720379      -0.38047385       0.99247265
H       11.09115300      15.82031100      13.46058700       0.95252694      -0.34855985      -0.41266435       0.95283270      -0.33813882      -0.41034886
H       11.77502500      14.57740300      13.95593900       0.30821816       0.61791085      -0.61801683       0.30807817       0.62442058      -0.61760783
27
Properties=species:S:1:pos:R:3:REF_forces:R:3:MACE_forces:R:3 REF_energy=-18719.816884786982 charge=0 spin=1 external_field="0.0 0.0 0.0" config_type=ORCA_DFT source_file=C_DFTprod_cutcluster_0012.out orca_step=0 MACE_energy=-18719.82421875 pbc="F F F"
O       13.12012600      13.62303000      14.05528600       0.63564715      -2.04467195      -0.33029792       0.64942169      -2.03269219      -0.29719174
H       12.65888300      14.25070100      14.57377600      -0.67914646       1.46921413       0.38954915      -0.65646136       1.46182227       0.37172571
H       13.63279800      14.00934600      13.35961100       0.23078465       0.83590442      -0.19370513       0.20599791       0.84245056      -0.18185098
O       12.77301500      13.64454800       9.54681700      -0.35665549      -1.00894271       2.94342555      -0.36006182      -1.00036407       2.94563985
H       12.42336200      13.16790900      10.41286700       0.66331083       0.86118541      -2.43536710       0.66306961       0.86098677      -2.43982887
H       13.41001600      14.24958800       9.96401400      -0.28281458       0.00195512      -0.43352155      -0.29233798      -0.00139091      -0.43550646
O       15.63394200      12.50974600       9.22832300      -2.04587841      -0.77275956      -0.71386613      -2.06393623      -0.78920412      -0.68774015
H       15.71176200      13.44443700       9.13302800       0.59123118       1.22401222      -0.00759283       0.60263681       1.22858310      -0.01095370
H       14.69666200      12.41287700       8.87959100       1.24953674      -0.20119845       0.46491550       1.24474931      -0.20986858       0.45939866
O       11.70960900       9.93996800       9.86302900      -0.19735856       0.42922971       0.39032825      -0.18985836       0.44816041       0.39762256
H       12.21065300       9.13608400       9.77235000       0.69979216      -0.44539234      -0.22481013       0.68983555      -0.45425713      -0.22352493
H       10.85394800       9.62577000      10.15624000      -0.45130649       0.04117730      -0.02770009      -0.43897596       0.03176451      -0.02940203
O       15.20216700      10.89852800      11.32443300      -0.37467460       0.91742979       0.14359787      -0.36248136       0.91360819       0.13244754
H       15.21560300      11.64666400      10.69129100       0.01190493      -0.43610510      -0.36796217       0.03142713      -0.43002057      -0.38585478
H       15.73913900      11.29123700      12.00951700       0.36292996      -0.40374329       0.64359689       0.34372428      -0.40410674       0.65734345
O        9.64207200      12.24220100      13.32868200       0.93321035       0.10864465      -0.64941175       0.93602645       0.10625102      -0.64409798
H        9.82481800      13.14300000      13.02881400      -0.58884556       0.25956127       0.32858146      -0.58363307       0.26417404       0.33525133
H       10.41613600      11.86304400      12.84298700      -0.60442032      -0.15273691       0.67752111      -0.62172562      -0.15725011       0.67167157
O       12.00000000      12.00000000      12.00000000       0.98595617      -1.24310312      -0.13482074       1.01674533      -1.26012444      -0.16414626
H       12.75857600      12.02828900      12.61943200      -0.68636041       0.21688691      -0.16510350      -0.67911059       0.22783086      -0.16308302
H       12.06261000      11.08118100      11.63560400      -0.02623729       0.89730201      -0.27252595      -0.04536536       0.90104783      -0.26913220
O       11.09759100      13.54034700      16.02783900       0.36609606       1.13609133       0.80387655       0.35763198       1.12569559       0.79615951
H       10.38540300      13.07499400      15.62075100      -0.82556910      -0.64714029      -0.69072363      -0.81737787      -0.64719564      -0.69157940
H       11.88868900      13.10125200      15.74436600       0.40115789      -0.72500271      -0.07502294       0.39036864      -0.71544886      -0.07558955
O       15.07054900       8.68539600       9.76840600       0.22568286      -0.11202272      -1.96556974       0.20783094      -0.10488188      -1.95882499
H       14.77034200       7.91570300      10.21072100      -0.32249437      -0.82638507       0.85492596      -0.31213528      -0.83004087       0.85486674
H       15.04647300       9.43784900      10.34163300       0.08452065       0.62060989       1.04768302       0.08399531       0.62447143       1.03617966
27
Properties=species:S:1:pos:R:3:REF_forces:R:3:MACE_forces:R:3 REF_energy=-18719.88557544749 charge=0 spin=1 external_field="0.0 0.0 0.0" config_type=ORCA_DFT source_file=C_DFTprod_cutcluster_0244.out orca_step=0 MACE_energy=-18719.88671875 pbc="F F F"
O       10.98286700      10.99745600       9.39876200       0.18160176       2.02295600       1.90310432       0.17445540       2.02177238       1.91162086
H       10.93819400      10.09650200       9.19930100      -0.13919090      -1.84503647      -0.92372920      -0.13827908      -1.85133362      -0.92675835
H       10.89511600      11.54891500       8.63133200       0.14331561      -0.15630971      -0.89089683       0.14874201      -0.14757341      -0.90496910
O       14.20899400      14.08566400      11.72408300      -0.49953761      -0.44430301      -0.00296911      -0.50619829      -0.44321296       0.00343002
H       15.09025300      14.28732000      11.44412400       0.97836818       0.20717272      -0.01646344       0.96820128       0.19775331      -0.01759980
H       13.97690200      14.78266700      12.33516400      -0.22385990       0.29697822       0.22847606      -0.21321397       0.29325259       0.21726678
O        7.18229800      13.53489000      12.71089200      -1.40603106      -1.51262937      -0.58710297      -1.38991380      -1.53479517      -0.60617942
H        8.04767900      13.56958300      12.25935100      -0.55231383      -0.41917464      -0.09627281      -0.55787063      -0.41674659      -0.09046683
H        6.58956500      12.78439700      12.34621200       2.03222303       1.93641652       0.67935647       2.02244544       1.94662213       0.68652093
O       12.00000000      12.00000000      12.00000000       1.15824097       0.67192541       0.39728242       1.16572976       0.67797750       0.39783758
H       12.88499300      12.33256300      12.33216700      -1.53683214      -0.62576208      -0.86313030      -1.53788316      -0.61856246      -0.87252623
H       12.09049700      11.74726600      11.06265600       0.01426875       0.03815132       0.30531744       0.01215702       0.03054154       0.32077038
O       11.52762400      12.92907300      15.17840000      -0.06803957      -0.24575773       0.16806068      -0.07578833      -0.25143394       0.15927441
H       10.57582800      12.95004200      15.30973800      -0.10065931      -0.18928468      -0.00216898      -0.10711484      -0.18131649       0.00712131
H       11.72453800      13.81028900      14.87201800       0.15241033       0.50944027      -0.18779344       0.16751061       0.51265156      -0.18692707
O       13.80288000      13.64869800       8.90431200      -0.40051748       0.93995836      -1.93950323      -0.40442210       0.94053721      -1.94175649
H       13.77722900      14.61065300       8.71328600       0.04149679      -0.97979530       0.33234514       0.03067715      -0.96950173       0.32409516
H       14.11354300      13.54741300       9.78270900       0.11888345       0.02406681       1.41566730       0.14230976       0.02456787       1.42938089
O       12.55586600      11.92056300       6.96391400      -0.77881122      -0.19232995      -0.51229815      -0.78787386      -0.18824300      -0.51300311
H       13.06196500      12.44861600       7.55856600       0.32310855       1.25888954       1.21767110       0.32515067       1.25811887       1.22329247
H       13.24099700      11.32727100       6.69818400       0.37513833      -1.01999239      -0.69650994       0.37709114      -1.02547598      -0.69169080
O       10.01923800      15.89726100      13.78005700      -0.00825391      -1.20195667      -0.08599451      -0.00804382      -1.20451307      -0.09456736
H        9.89327200      15.10682100      13.17235400       0.11570459       1.12529758       0.69288741       0.11764061       1.13791740       0.70255387
H        9.77100800      15.57985100      14.66300600      -0.03933891       0.24798626      -0.43057075      -0.04243513       0.23875938      -0.42766088
O        9.91737300      14.07015900      11.75749700      -1.24114276       0.52037440       0.35153580      -1.24928772       0.51416463       0.35709852
H       10.59576500      13.40362200      11.88905200       0.88589197      -0.45854204      -0.53504825       0.88215661      -0.45546311      -0.54992110
H       10.03573900      14.65398200      11.00033400       0.47387636      -0.50873944       0.07874791       0.48405710      -0.50646424       0.08376331
27
Properties=species:S:1:pos:R:3:REF_forces:R:3:MACE_forces:R:3 REF_energy=-18719.48910339389 charge=0 spin=1 external_field="0.0 0.0 0.0" config_type=ORCA_DFT source_file=C_DFTprod_cutcluster_0050.out orca_step=0 MACE_energy=-18719.494140625 pbc="F F F"
O        8.35389500      12.50419700      15.11590400       0.02669978      -0.12187472       0.41269855       0.03418556      -0.11535734       0.41810942
H        8.64055300      11.59502800      15.22350000      -0.15437506      -0.12218690      -0.05843897      -0.15692428      -0.12229301      -0.06618100
H        7.49505700      12.48380900      14.68358200       0.08778215      -0.08098143      -0.18866988       0.08118659      -0.08505325      -0.19299479
O       10.38794100      10.56975400       7.84261100       0.13288326      -0.15777072       0.53359301       0.12309461      -0.14952132       0.53527784
H       10.79284000      11.43138000       7.99857200      -0.06653095       0.36296353      -0.31369765      -0.06633209       0.36791399      -0.31323081
H       10.55462700      10.14183800       8.69568900      -0.04057211      -0.08402895      -0.22238954      -0.02645562      -0.09421809      -0.22382426
O       11.05592500      12.28299500      12.15828400       0.70063569      -1.41736798      -1.16360461       0.70373058      -1.42015302      -1.17874742
H       10.57998200      11.60144400      11.58789600       0.90113480       0.93946425       0.96717339       0.88339174       0.94218767       0.97436357
H       12.00000000      12.00000000      12.00000000      -1.45621010       0.68388063       0.39218510      -1.45715547       0.68711901       0.40855241
O       11.20105400       7.57452500      11.44721300       0.88770439      -2.61380887       1.54788886       0.87300247      -2.61706781       1.55983019
H       10.66846000       7.01438200      12.12950700       1.70900191       1.40205074      -1.84414337       1.70981860       1.39562082      -1.85493052
H       12.13146500       7.15421000      11.35774900      -2.47873729       0.93574283       0.39030475      -2.46624207       0.94345903       0.39425063
O        7.85951500      15.46213300      10.67231500       0.42428687       0.08746174      -0.42189204       0.43228939       0.10248071      -0.42198318
H        8.25303900      14.64230400      10.99004200      -0.22849200       0.09698865       0.25104150      -0.23465364       0.08147902       0.24815364
H        6.91893900      15.42083300      10.83819000      -0.15958319      -0.19997080       0.20100012      -0.15925419      -0.20613158       0.20233446
O       10.78589300      13.53617000       8.03709800      -0.68284371      -0.14501907      -0.10825646      -0.68041319      -0.14575315      -0.10575920
H       11.28569400      14.31848600       8.25635700       0.32984310       0.30234350       0.15063035       0.33399951       0.29905596       0.14942002
H        9.86733800      13.84931700       8.00537300       0.34361644      -0.20524984       0.00279535       0.33737573      -0.21195878       0.00529503
O       10.32344300       9.99448700      10.83952000       0.70201540       0.75725154       0.06649603       0.72689295       0.78747547       0.06942213
H       10.72821400       9.15604300      11.12925300      -0.33074118      -0.14778193      -0.05213689      -0.32896668      -0.15707892      -0.07189973
H        9.45351500       9.84863600      10.50276200      -0.79222883      -0.56463101      -0.30672569      -0.81191713      -0.56880617      -0.29406488
O        7.46506800      11.79883500      12.17656400      -1.55154096      -0.01902807      -1.48737038      -1.54176569      -0.02585131      -1.49036896
H        7.05275500      11.71796200      11.27757000       0.15459577       0.19561453       1.30889611       0.15104800       0.20386583       1.32242286
H        8.36189900      11.60291800      11.96320900       1.37552908      -0.13382356       0.22926117       1.37151015      -0.12771687       0.22700307
O        9.71834700      14.59500800      14.03958100       0.86872270      -1.43347564      -0.89089873       0.88068521      -1.42469263      -0.89430022
H       10.04675100      13.88627100      13.42057700      -0.24467761       1.27681594       0.28238963      -0.24701190       1.26410449       0.26313603
H        9.58777600      13.99309300      14.78346300      -0.45791829       0.40642171       0.32187031      -0.46511874       0.39689109       0.33071351
27
Properties=species:S:1:pos:R:3:REF_forces:R:3:MACE_forces:R:3 REF_energy=-18719.89747127284 charge=0 spin=1 external_field="0.0 0.0 0.0" config_type=ORCA_DFT source_file=C_DFTprod_cutcluster_0450.out orca_step=0 MACE_energy=-18719.90234375 pbc="F F F"
O        9.51351200      12.55083400      15.22047000       0.38435763       2.22442061      -1.03530902       0.37199479       2.22009993      -1.04786336
H       10.21015600      12.53262000      14.53786000      -0.20751653      -0.18136332       0.50676581      -0.20863469      -0.18164282       0.51990771
H        9.38015200      11.71047200      15.58239100      -0.09826351      -2.04896312       0.47899105      -0.09679241      -2.04348040       0.48624718
O       15.12106400      13.79729700      12.39910300       1.23710242       0.93567629      -0.10755563       1.22348642       0.93458039      -0.09134664
H       15.87095200      14.37313200      12.66709400      -0.70466235      -0.47831794      -0.56759133      -0.71215665      -0.48514670      -0.58180416
H       14.74531000      13.54269200      13.23826800      -0.48744973      -0.52034555       0.58333985      -0.47672769      -0.51284719       0.57903516
O        9.17186500       9.71878000      11.62038300       0.76765618      -0.40836269      -0.97197564       0.75849938      -0.41490990      -0.97087079
H        9.54352600      10.52652700      11.95347600      -0.36918273       1.23785401       1.27513141      -0.37117741       1.24334705       1.27370477
H        9.84958500       9.67863000      10.92673000      -0.46261657      -0.91202991      -0.28055921      -0.45725715      -0.90633619      -0.28249043
O       13.64231900       9.34160200      12.33614500       1.94411430      -0.23384889       0.91130264       1.95508087      -0.22970983       0.93413550
H       14.33903200       9.60710800      13.02586800      -1.34619259      -0.90677488      -1.82831987      -1.35368037      -0.91078955      -1.81963599
H       14.02650300       8.65069600      11.74096900      -0.31018531       0.97148677       0.96164459      -0.31918383       0.97699946       0.93606532
O       11.47623800      14.10330500      13.79992200       0.52922105       0.40510495       0.01020399       0.49221194       0.41633818      -0.01159017
H       11.76653900      14.74153900      13.12863400      -0.38029899      -0.36284984       0.11003222      -0.36114070      -0.36340648       0.12495139
H       12.31417100      13.67429300      14.06899500      -0.67810516       0.17546407      -0.14395947      -0.65651345       0.17765757      -0.14633292
O       12.58134200      13.69342900      11.24741000      -0.18159302      -0.04230946      -0.27591719      -0.16585270      -0.06949828      -0.27442890
H       12.43807600      13.70251200      10.29583000       0.09828187       0.07199408       0.00202552       0.08266702       0.07550192       0.00894699
H       13.51988600      13.88607300      11.39726600       0.14944091      -0.04918428      -0.04031655       0.16895829      -0.03916024      -0.03777757
O       13.68583500      12.77084900      14.63584800      -0.27852140      -1.96323605      -0.11333799      -0.27283663      -1.95512438      -0.12250122
H       13.37447300      11.85639200      14.84491000      -0.03315787       0.80540070      -0.95336158      -0.02184487       0.79352176      -0.93729258
H       13.97467600      13.01145700      15.49634000       0.58533564       0.99481054       1.30950732       0.58352363       0.99311495       1.31888771
O        9.01135600      12.77893100      12.10473900      -1.87390986      -0.46221316      -0.26055464      -1.87286639      -0.46142873      -0.25364959
H        8.87597900      12.82452400      13.04979300      -0.22934319       0.06011872       0.50680545      -0.23910354       0.04785650       0.52002650
H        9.91275100      12.96924900      12.00153500       2.05190055       0.53627210      -0.16085008       2.04517722       0.53937298      -0.18079808
O       11.67219200      11.25417800      12.56248000       0.91664226       0.19373300      -0.44023044       0.94779313       0.17515813      -0.45072624
H       12.00000000      12.00000000      12.00000000      -0.23070408      -0.51252580       0.66583658      -0.24358259      -0.50253379       0.64135766
H       12.36565700      10.55898200      12.47029700      -0.79234993       0.46998911      -0.14174786      -0.80004227       0.48246685      -0.13415712
27
Properties=species:S:1:pos:R:3:REF_forces:R:3:MACE_forces:R:3 REF_energy=-18719.398566371987 charge=0 spin=1 external_field="0.0 0.0 0.0" config_type=ORCA_DFT source_file=C_DFTprod_cutcluster_0099.out orca_step=0 MACE_energy=-18719.41015625 pbc="F F F"
O       12.71354500       8.88435500      12.77999000      -0.34577874       0.56236499       1.82368736      -0.35196599       0.60075867       1.80826974
H       12.20731700       9.59966300      12.37218400       0.18153928       0.09645818      -0.15242277       0.18467227       0.06941706      -0.16672422
H       12.65207000       9.09148000      13.75831700       0.28590356      -0.45163914      -1.67376998       0.29353395      -0.45985746      -1.67457342
O       15.12515900       9.25806200      10.92654000      -1.52774391      -0.00775198       1.95341475      -1.51079309      -0.00191021       1.94835234
H       15.05979200      10.05923600      10.42920900       0.25091336       0.72708561      -0.78493132       0.24280192       0.73875153      -0.79595935
H       14.42241800       9.43532900      11.63283800       1.30527189      -0.83019930      -1.16002347       1.28016496      -0.84141982      -1.14203310
O       14.45605900      12.73020300       9.25851000      -0.42324449      -1.41400138       0.91159513      -0.41744405      -1.42204547       0.94166225
H       14.18839700      12.21194300      10.06387100       0.34269702       0.90547622      -0.69548222       0.34277400       0.90426886      -0.70446080
H       14.17304700      12.12069300       8.55933200       0.06258703       0.37279754      -0.10824294       0.06263562       0.37069046      -0.12172618
O       12.46705800      14.57705300      10.07276900       1.71285512      -1.24559653      -0.94598179       1.68409657      -1.27361631      -0.93524534
H       13.23597300      14.00348100       9.70457900      -1.49764328       1.64458086       0.06991329      -1.49311531       1.65400457       0.06631184
H       12.34759100      14.00190400      10.83608100      -0.49837337       0.16393103       0.42666031      -0.48262179       0.17603408       0.39193887
O        9.76815200      12.97715500      10.53339500      -0.41614521      -0.05529158       0.88890808      -0.46343517      -0.03309800       0.86717510
H        9.48178200      13.86374400      10.77271600       0.14832454       0.20464414       0.00547141       0.14668268       0.19806580       0.02940738
H        9.02443500      12.41090300      10.76482100      -0.03212290       0.05369163      -0.24707866      -0.01563644       0.06371299      -0.25885856
O       11.61277000      10.52902100      10.49267000      -0.37554065      -3.43099782       2.22442457      -0.34986728      -3.42211795       2.26265001
H       10.94462200       9.81451400      10.79508500       1.53067224       1.91244180      -1.16808383       1.52893496       1.92861426      -1.16836596
H       11.15566500      11.14024800       9.96400000      -1.13196497       1.34356734      -1.35910842      -1.13928020       1.32265377      -1.33245695
O       12.75072500      12.64579800      11.90432500      -1.12357222      -2.05471370      -0.89626118      -1.08994412      -2.05550504      -0.95314360
H       12.74682900      13.02519300      12.74913800       0.42738551       1.20556455       2.00267467       0.39887252       1.18802261       2.03494525
H       12.00000000      12.00000000      12.00000000       0.80452472       0.54497050      -0.69659088       0.80072105       0.52743036      -0.69362366
O       10.64404900      12.71816400       8.10908200      -0.21486793      -0.13405774       0.78016012      -0.19116433      -0.14624128       0.76881599
H       10.97219400      13.47944000       7.63332400       0.22514550       0.20660086      -0.03387573       0.22054815       0.21371223      -0.02933870
H       10.47331300      13.03271100       9.03751600       0.27285526      -0.21783709      -1.38970779       0.28051910      -0.20794362      -1.36998761
O       10.12002600      11.15355300      13.11991100      -0.40559377      -0.73626198       0.14585545      -0.41604480      -0.72736233       0.15583849
H       10.18497100      10.31566500      13.63222500      -0.39327175       0.85649058      -0.54694064      -0.37627414       0.86036336      -0.54553741
H        9.23853800      11.16552300      12.69039100       0.83518811      -0.22231770       0.62573637       0.83062911      -0.22538278       0.61666757
27
Properties=species:S:1:pos:R:3:REF_forces:R:3:MACE_forces:R:3 REF_energy=-18719.828329727017 charge=0 spin=1 external_field="0.0 0.0 0.0" config_type=ORCA_DFT source_file=C_DFTprod_cutcluster_0038.out orca_step=0 MACE_energy=-18719.837890625 pbc="F F F"
O        7.95236200      10.32585100      13.66615100      -0.97355451       1.03339966       0.83056100      -0.96996093       1.03710282       0.81831706
H        7.40909500       9.68852800      14.15784000       0.14517612       0.20114667      -0.24202567       0.13887781       0.19567344      -0.23732226
H        7.77374100      11.19322500      14.11896200       0.20523169      -1.16131200      -0.72706931       0.20555393      -1.15680194      -0.72028756
O       10.29843600      14.27208600      13.76686800       0.42208739      -1.29542369      -0.47053855       0.41894540      -1.28953934      -0.47362274
H       11.20644700      14.62434000      13.72669500      -0.26434516       0.13936661       0.01360772      -0.25666541       0.14034511       0.01043779
H       10.45212800      13.37372500      13.37164500      -0.20436934       1.15615314       0.58135028      -0.20331930       1.15613973       0.58385050
O       14.18417300      13.90197800      16.76578100       0.87820221      -0.99681117       0.60679458       0.90118682      -0.98490936       0.59644210
H       13.27253200      13.76331800      16.58106200      -1.44909411       0.43830787      -0.65154438      -1.45392942       0.42285448      -0.64279401
H       14.34884800      13.05684200      17.22407500       0.59141646       0.52162828      -0.07084218       0.57718873       0.51988184      -0.06646027
O       12.85680300      15.54275800      13.41104200      -3.50985422       2.95748974      -0.08783331      -3.51861477       2.94411564      -0.08906934
H       13.67918200      15.20096100      13.54366600       3.65016062      -1.57960501       0.61146936       3.64963841      -1.57773054       0.60546917
H       12.89893700      16.48175400      13.72950200      -0.07110443      -1.38043917      -0.47625797      -0.07855741      -1.38548291      -0.47171056
O       12.15048100      12.05232900      12.96945800      -0.98755694      -1.39888113      -0.92147028      -0.98569041      -1.39319527      -0.92289042
H       12.00000000      12.00000000      12.00000000       0.46162124       0.37955450       0.69184190       0.46428791       0.38925853       0.69294059
H       11.65378600      11.22859400      13.23852900       0.38190789       0.73106789       0.29348008       0.36873448       0.71526784       0.30602902
O       10.46699100      10.04732400      14.33947100       1.88432596       1.38334169       1.65474566       1.90048575       1.39788222       1.66269112
H        9.57861000      10.01949000      14.01549300      -1.20732318      -0.10300992      -0.54080336      -1.20075214      -0.10756432      -0.54776156
H       10.43487700      10.73857500      15.07529200       0.09714719      -1.22519287      -1.00336131       0.09073124      -1.23319733      -0.99892920
O       10.50898100      11.54513400      16.76000200      -0.19734000       1.11880714       0.44860915      -0.19175166       1.11791039       0.43864334
H       10.00283600      12.35670600      16.99338600       0.41929975      -0.81187977      -0.34872646       0.41024780      -0.81558728      -0.33989134
H       11.41579500      11.76759300      17.02109900      -0.23977719      -0.27210095      -0.12419499      -0.23720787      -0.26562655      -0.13576646
O       14.58190000      11.17591700      14.53685000       0.59089694      -0.97803784       0.37180227       0.59359634      -0.97853208       0.36214885
H       14.71033100      12.03268900      14.92000100      -0.02564496       0.79915199       0.11876610      -0.02609687       0.79402125       0.11539584
H       13.84872300      11.23825300      13.93415700      -0.55213653       0.37003942      -0.46719786      -0.53823876       0.37658265      -0.45357439
O       11.88949400       7.67097400      15.44652000      -1.34578816      -1.22590820       1.07199707      -1.34431183      -1.22598124       1.08076477
H       11.15525800       7.15613900      15.89684100       1.44442303       0.90125786      -0.83892516       1.44365180       0.89645284      -0.84351575
H       11.46739700       8.51330700      15.25009900      -0.14400786       0.29788922      -0.32423428      -0.15802999       0.31065995      -0.32953447
27
Properties=species:S:1:pos:R:3:REF_forces:R:3:MACE_forces:R:3 REF_energy=-18719.687861158476 charge=0 spin=1 external_field="0.0 0.0 0.0" config_type=ORCA_DFT source_file=C_DFTprod_cutcluster_0458.out orca_step=0 MACE_energy=-18719.724609375 pbc="F F F"
O       10.83217500      13.54459200       8.34845400       0.58192245      -1.00025032      -1.34754489       0.58953422      -1.00276065      -1.35001266
H       10.00139500      13.31748500       8.74654100      -0.87974749      -0.06757029       0.57960172      -0.87612092      -0.06637637       0.58932579
H       10.97135800      12.78758100       7.72878100      -0.00681219       0.99127039       0.59528237      -0.00369899       0.98885691       0.59900194
O       12.38835600      12.79690000      12.47337100      -0.16447641      -1.05248630       0.06064127      -0.15971959      -1.08180726       0.06161860
H       13.16313200      12.57288900      13.11013700      -1.64767431      -0.32499924      -1.11323607      -1.59387600      -0.31472757      -1.08931327
H       12.00000000      12.00000000      12.00000000       1.27466285       1.31776087       1.27479459       1.23432481       1.32758391       1.25921583
O       15.55392100      12.74629300       8.98499400       0.12831662      -0.73858579      -0.76972736       0.12184889      -0.74984252      -0.75683397
H       14.66717500      12.98785500       9.30349600      -0.37961667       0.31425547      -0.20096176      -0.36562532       0.31176728      -0.21441956
H       15.43395400      12.27896700       8.12994000      -0.00319023       0.54246038       0.93241351      -0.00886883       0.55740160       0.93299782
O       11.88754700      15.87122300      14.16641700      -0.72965651      -1.91761584      -0.47274723      -0.73370063      -1.91873574      -0.46538639
H       11.08494200      16.06190300      13.64237300       0.61472495       0.01798651       0.38296332       0.60817301       0.02181635       0.38136601
H       11.89616300      14.86359200      14.14771400       0.13603528       1.83463270       0.04579320       0.15076932       1.83181286       0.03720058
O       15.73267000      11.47764600      11.61109300      -1.12482573       1.72405654      -1.00882912      -1.14465690       1.73711121      -1.02323365
H       15.23715300      11.69749800      10.75468300       1.36188938      -0.67602607       1.49727633       1.37683892      -0.68458432       1.50816679
H       15.84760300      10.54674300      11.69440200      -0.05636378      -1.00799469      -0.29176603      -0.05410196      -1.01978374      -0.29248899
O       14.22759700      12.43452000      14.31159600       0.73842258       0.09272088       0.10643962       0.68324047       0.09606554       0.10496056
H       14.44949100      11.71741300      14.92847900      -0.01404748       0.37974050      -0.48623071       0.00925536       0.37956995      -0.49237189
H       15.03037700      12.65150400      13.79513300      -0.31620457      -0.43518989       0.37122326      -0.31223232      -0.42566812       0.37788031
O        8.70808300      12.78008800      14.23670700       0.22926379      -0.67767733       0.51949750       0.24958663      -0.66966283       0.52302849
H        8.41822600      13.37480600      13.56172300      -0.27203580       0.65008055      -0.61289879      -0.28109267       0.64338696      -0.61422253
H        9.09448300      12.04158900      13.75473200       0.06753887       0.05342115       0.08997869       0.05444599       0.05211647       0.09116952
O        8.22393200      11.66318900       9.69264300       0.11849120      -0.00641130       0.01007451       0.11909132      -0.00823336      -0.00254112
H        7.48837700      11.55377400      10.30091900      -0.11757069       0.13488276       0.04486174      -0.11442246       0.14019053       0.04743330
H        8.49294400      10.76139100       9.49968800       0.08113543      -0.08114484      -0.08981517       0.08285190      -0.08172817      -0.08827673
O       13.04245500      13.42915300       9.97568500       0.30777346       0.12698767       1.55997361       0.32806048       0.14384308       1.56305075
H       12.77095700      13.54912700      10.95153400       0.42543291      -0.39741920      -1.78746391       0.43557861      -0.40288678      -1.80056882
H       12.27790600      13.52533500       9.39886200      -0.35338797       0.20311459       0.11040580      -0.39548370       0.19527486       0.11325386
27
Properties=species:S:1:pos:R:3:REF_forces:R:3:MACE_forces:R:3 REF_energy=-18719.9502254073 charge=0 spin=1 external_field="0.0 0.0 0.0" config_type=ORCA_DFT source_file=C_DFTprod_cutcluster_0287.out orca_step=0 MACE_energy=-18719.947265625 pbc="F F F"
O       12.78351200      14.34907900      10.59480800       1.23671557       0.56155808       1.77416323       1.23351836       0.54051203       1.81317949
H       13.39403000      14.95592600      11.12318700      -1.36134431      -1.42527813      -1.03278034      -1.36630297      -1.42634070      -1.05405617
H       12.63973300      13.51757500      11.13049100       0.41180144       0.84185539      -0.49639048       0.41911829       0.85044014      -0.50391394
O        9.70978500      12.90664700      10.75700800       0.32558967       0.46437736       1.15979834       0.32126853       0.44595981       1.15237093
H        9.22594000      13.54621500      11.29096000      -0.71755936       0.05235296      -0.30456550      -0.72111702       0.06443240      -0.29657489
H       10.59367800      13.06970000      11.14750900      -0.12249050      -0.83487053      -0.29708657      -0.11524442      -0.83410829      -0.29819646
O       12.63720800      12.06408100      14.72923800       0.07568742      -0.25480390       0.25431555       0.08210406      -0.24978697       0.26402366
H       12.51002600      11.38012300      15.41083200       0.12788272       0.52839367      -0.39375764       0.12361076       0.51857907      -0.40335059
H       13.48663900      12.48724100      14.89440100      -0.01362232      -0.20016328       0.22540004      -0.02125062      -0.19089770       0.21307550
O       12.00000000      12.00000000      12.00000000       0.85054650      -0.93040676       0.72530306       0.83965212      -0.95829582       0.74896717
H       12.19553600      12.08704800      12.98012700      -0.36816184      -0.49608205      -1.28090698      -0.35008571      -0.49145365      -1.27791226
H       12.21883600      11.04073400      11.74521300      -0.30256791       1.45526008       0.60532417      -0.31899279       1.47388494       0.60305643
O       11.04934900      13.70442400       8.59306100      -1.27254765      -1.37798536      -1.42233798      -1.27169371      -1.34789324      -1.42990780
H       10.46011500      13.35228000       9.27764000      -0.19816594       0.06440418      -0.42344756      -0.19340105       0.04397568      -0.42464325
H       11.59985000      14.26897300       9.07758900       1.50481424       1.36237733       0.98427195       1.50487685       1.36454439       0.97680372
O        9.46784600      11.78223000      13.65317900      -0.02153597      -1.17636772       0.89634993      -0.02456141      -1.18584931       0.89934814
H        9.60817600      11.55158500      12.73319500       0.10421926       0.10607704      -0.52879307       0.10274044       0.11508249      -0.52277040
H        9.50927600      10.90515700      14.10733900      -0.12337357       1.19345033      -0.44356372      -0.11004652       1.19786954      -0.45652497
O       12.78241600       9.31800100      11.48536300      -0.30091505       0.31317180      -0.12001874      -0.29531321       0.32089332      -0.12756634
H       13.52709400       9.15272200      12.05155100       0.40596802      -0.24375726       0.70432949       0.40478563      -0.24522784       0.70814431
H       13.22170400       9.50928400      10.64722000      -0.06641422      -0.04584745      -0.79845702      -0.07124242      -0.04908388      -0.79698658
O       13.74425500       9.87955900       8.78795100       0.63337218       1.70947576       0.59789157       0.62470132       1.71483910       0.58693707
H       12.99006600       9.64817200       8.25333700      -0.44596389       0.03212912      -0.35920715      -0.44328964       0.02892257      -0.35468060
H       13.81300300      10.87693700       8.75261200      -0.26585579      -1.62973685      -0.11469080      -0.25556377      -1.63622284      -0.10925904
O       10.91962500      14.83945400      14.39951200       3.29400537      -0.14302626      -0.48865239       3.31788158      -0.14444566      -0.49922708
H       10.49844300      14.19149400      13.84543800      -0.68291611      -0.66667795      -0.20163785      -0.69812846      -0.66966957      -0.20252225
H       11.90853700      14.62885300      14.18690000      -2.70716794       0.74012038       0.77914649      -2.71802402       0.74933970       0.79218668
27
Properties=species:S:1:pos:R:3:REF_forces:R:3:MACE_forces:R:3 REF_energy=-18720.543207337207 charge=0 spin=1 external_field="0.0 0.0 0.0" config_type=ORCA_DFT source_file=C_DFTprod_cutcluster_0280.out orca_step=0 MACE_energy=-18720.560546875 pbc="F F F"
O        7.95212500      13.30824600      12.70312400      -0.14058726       0.31794799      -0.59291376      -0.12400495       0.34083614      -0.58559972
H        7.52929500      13.97000900      13.25495000       0.04170643      -0.10596792       0.22076357       0.02619544      -0.10928220       0.20143853
H        8.42253100      12.68629200      13.29348800      -0.15780604       0.06477977       0.24953129      -0.14651114       0.05548832       0.24982662
O        9.20197600      11.69570400      14.35860100      -2.22197410      -0.91203309       1.49384334      -2.24159265      -0.92561471       1.50092745
H        8.96482500      11.24405500      15.22105000       0.70839790       0.95658178      -1.71465571       0.70844746       0.96014631      -1.69780219
H       10.13500300      11.67618900      14.25550800       1.75137621      -0.15295514       0.37438484       1.76005638      -0.15602750       0.34542924
O       12.31970200      11.88880800      12.89814100       0.85631970       0.49913549      -0.18339212       0.83291310       0.49968711      -0.18231709
H       12.00000000      12.00000000      12.00000000      -0.83447005      -0.12532802      -0.52859530      -0.82727015      -0.12529403      -0.53424221
H       13.16929900      12.34354200      12.74257500       0.01564969      -0.09188902       0.36699328       0.02064815      -0.11272961       0.38280281
O       12.25516000      15.68724900      10.95593400      -0.89020345      -0.90756920      -0.67258896      -0.90271127      -0.88919544      -0.66569740
H       11.34269000      15.25950000      10.99317000       1.31405441       1.12194491       0.61824201       1.29764056       1.12046659       0.61517048
H       12.47872000      16.16108000      11.76283400      -0.62840111      -0.22761957       0.18172888      -0.60535693      -0.22758088       0.18739046
O       11.81360000      11.18189900      15.44438400       0.41334672      -0.01703063      -0.57354106       0.43621755      -0.04779971      -0.55370981
H       11.48087600      10.41784100      15.93892700       0.66194501       0.00453805      -0.64287601       0.64760363       0.01937057      -0.64877254
H       12.34951600      10.95631000      14.62921100      -1.13758735      -0.09226692       1.34403908      -1.12105441      -0.06818017       1.33074522
O       14.07872300      13.52975000      11.09347000       0.64980107      -0.36461943       0.88860042       0.65342116      -0.34548885       0.89315706
H       14.17616600      12.98384600      10.32121700      -0.06493892      -0.19546973      -0.45716825      -0.08327202      -0.19982195      -0.46176142
H       13.42816500      14.20482400      10.88926600      -0.51877749       0.55664321      -0.21604796      -0.50926447       0.53902602      -0.21130376
O        9.50141300      14.67753200      10.89980800      -0.37547087       1.95622255      -1.66086993      -0.38915107       1.95070815      -1.64878392
H        8.85736100      15.33000100      10.52057900       1.08317993      -0.77126637       0.40990751       1.08710670      -0.77283406       0.41723138
H        8.96578400      14.21321000      11.53727200      -0.56462268      -1.06110731       1.08068405      -0.54969931      -1.05068362       1.06764364
O       11.76123500      14.94337800      14.26463400       1.94133894      -1.53178229      -0.99646566       1.93569493      -1.51156461      -0.99448854
H       12.75339000      14.80436800      14.41102600      -2.07963947       0.35874975      -0.14059061      -2.07786584       0.35344934      -0.14702104
H       11.57094000      14.19172800      13.62801200       0.16739091       1.12202138       1.09355186       0.16613078       1.11919332       1.09554386
O       11.21877600      12.68042100      10.23073000       0.08987734       0.58988331      -0.03619167       0.07818362       0.59005481      -0.03299874
H       10.75326600      13.44128800       9.82630300       0.05342907      -0.61131109       0.53354714       0.04857025      -0.62356400       0.51771855
H       11.10977900      11.94448700       9.63869100      -0.13333454      -0.38023230      -0.43992026      -0.12107553      -0.38276514      -0.44052678
27
Properties=species:S:1:pos:R:3:REF_forces:R:3:MACE_forces:R:3 REF_energy=-18720.389294134 charge=0 spin=1 external_field="0.0 0.0 0.0" config_type=ORCA_DFT source_file=C_DFTprod_cutcluster_0049.out orca_step=0 MACE_energy=-18720.392578125 pbc="F F F"
O       14.60867000      13.48923900      12.11647300      -0.04594320       2.22477908       0.63135227      -0.03355089       2.21900845       0.63428432
H       14.02585100      13.50092500      12.88793700      -0.22329565      -0.85105115       0.26058693      -0.23916593      -0.86363125       0.25840154
H       14.65482500      14.47514100      12.00589500       0.35989827      -1.22294768      -0.34879182       0.34981579      -1.22334480      -0.35409653
O       14.17880600       9.62705800       9.38575700       0.56429121      -0.07895257       0.41540659       0.58364511      -0.07074034       0.41874152
H       14.10635100      10.59918200       9.37560300      -0.12775658       0.01703891       0.02017154      -0.13829541       0.00651658       0.02888575
H       14.89357800       9.48688700      10.03752400      -0.61215971      -0.00946757      -0.45063739      -0.61652589      -0.00884477      -0.45740777
O       13.01003300      13.05270900      15.07188200       0.11819290      -0.49698862      -0.33464453       0.11941496      -0.50211132      -0.35185024
H       13.20491000      13.43315800      15.91492700       0.77414035       0.33873947       0.93627464       0.77196074       0.33825317       0.94351989
H       12.14057100      13.41955400      14.94357600      -0.94039247       0.25122601      -0.72325297      -0.93673217       0.25881934      -0.71200180
O       11.36934200      12.76283700      12.04100500       1.27389162      -1.18770854       1.32943568       1.28736651      -1.18884075       1.32114649
H       11.15161200      12.82652200      11.14345300      -0.79780345       0.47504497      -2.11870923      -0.80963427       0.46616566      -2.11921239
H       12.00000000      12.00000000      12.00000000      -0.39891368       0.22843924       0.67202492      -0.38866550       0.26252928       0.67785072
O       13.42520800       9.93300700      15.75880600      -1.41598761       1.44820765       0.62127782      -1.42280424       1.45630527       0.60767758
H       12.63177300       9.59353400      16.19605800       0.25175833      -1.08216218      -0.10923183       0.25324875      -1.08602285      -0.10223033
H       13.11949600      10.86736400      15.87911800       1.15908116      -0.28833299      -0.78510960       1.15884328      -0.28735188      -0.77866930
O       11.58681900       8.40771000      10.39483000       1.92212216      -0.26264659      -1.25538261       1.91224718      -0.25539565      -1.25180924
H       11.48064000       7.45142500      10.50578400      -0.03175261       0.29382158      -0.05723533      -0.02128257       0.29029444      -0.06063413
H       12.40982000       8.49457000       9.78509900      -1.67672531       0.13731867       1.42855305      -1.68383253       0.14108256       1.43081629
O       12.89444200      10.18740600      12.29612500       1.14377929       1.05076634       2.05834153       1.12200046       1.04289770       2.04916406
H       12.47967100       9.40076900      11.96420300      -0.49298552      -0.84882344      -0.39595876      -0.49283242      -0.85206610      -0.40306154
H       13.22203200      10.02034000      13.23049700      -0.73115273       0.10946159      -1.61464797      -0.70929933       0.10971667      -1.60594928
O       14.23783700      12.52581500       9.69811200       0.83296925      -0.55139867       2.07053031       0.82048619      -0.55710745       2.06326175
H       14.37482200      12.82628200      10.67839700      -0.42787916      -0.59901916      -1.96410684      -0.41248477      -0.57838309      -1.93692696
H       13.75283200      13.21374000       9.28076300      -0.59136714       0.85134827      -0.53105744      -0.59445351       0.84123278      -0.54139400
O       10.81870200      14.86357800      13.62494000       0.98587405      -0.25915529       0.43999045       0.97882801      -0.26631373       0.45754474
H        9.95448100      15.20307300      13.47890200      -1.07625178       0.49150652      -0.04036509      -1.06320846       0.48804644      -0.05357401
H       10.88857200      14.09418200      13.03970400       0.20436816      -0.17904387      -0.15481436       0.20491058      -0.18071520      -0.16247685
27
Properties=species:S:1:pos:R:3:REF_forces:R:3:MACE_forces:R:3 REF_energy=-18719.753603902347 charge=0 spin=1 external_field="0.0 0.0 0.0" config_type=ORCA_DFT source_file=C_DFTprod_cutcluster_0003.out orca_step=0 MACE_energy=-18719.759765625 pbc="F F F"
O       12.55769600      14.81762300      12.07823900      -0.15360805       0.10437862      -0.24750552      -0.14561608       0.11794437      -0.25653362
H       11.84160100      15.01701200      11.45442100      -0.33066245      -0.12849979       0.39769894      -0.34396985      -0.13047665       0.39057848
H       13.21638700      14.45241500      11.48451600       0.35213060      -0.26664286       0.05684591       0.34385717      -0.26876804       0.07320784
O       10.62906600      13.63226100      14.46571200       3.06423758       0.67151558       2.29652546       3.05343151       0.66561699       2.30547071
H       11.05421800      13.67827200      15.40961900      -1.59468613      -0.18507275      -2.41054042      -1.59631479      -0.19583215      -2.41295266
H       11.46979800      13.72499100      13.93570800      -1.39582512      -0.12842677       0.07074021      -1.38234282      -0.12356324       0.06875376
O        8.57462600      12.04039200      10.45371000      -2.90681386      -0.90238369       0.07287376      -2.91132593      -0.86915064       0.09255906
H        8.01164800      11.23218700      10.28162100       0.72021413       1.58681598       0.26570960       0.71930683       1.56840873       0.26191959
H        9.43176000      11.72679300      10.29827200       2.21990246      -0.66020843      -0.30501889       2.22993279      -0.66757655      -0.32473043
O        9.23895000       9.46202100      12.38021900       1.62006796      -1.35905464       0.34819687       1.62896478      -1.32812440       0.34949923
H        8.63661900       9.44238600      11.66777500      -1.06551367       0.22838509      -0.88986622      -1.06464791       0.22824408      -0.88440484
H        9.26280800      10.31039400      12.80133000      -0.52522062       1.05739346       0.78132684      -0.52738357       1.03838849       0.76999402
O        9.80227600      14.65115500      10.98588400       1.77313649      -1.36599446      -1.67715777       1.77360690      -1.35400176      -1.67139220
H        9.28196000      13.84745400      10.93821900      -0.33304232      -0.10144052       0.09792057      -0.34331065      -0.12075987       0.07671596
H        9.35426800      15.26154100      11.50249600      -1.45774803       1.61520060       1.56611017      -1.44579482       1.61646140       1.56867123
O       13.59274600      12.21993000      10.62302600       0.69123070       0.15645385       0.20487693       0.68608153       0.16350500       0.20635679
H       13.64356100      12.16819800       9.66863900      -0.17460034      -0.01715785      -0.35424060      -0.18217981      -0.03498194      -0.35132200
H       14.52470900      12.15071900      10.89140700      -0.42741277      -0.09341708       0.14145403      -0.42319959      -0.08486096       0.14499074
O       11.45658100      11.43357800      12.49347000      -1.90874512      -2.21449502       1.34183709      -1.90480852      -2.25662208       1.34409785
H       12.00000000      12.00000000      12.00000000       1.05229182       0.82859462      -1.82164529       1.05111563       0.83973974      -1.83248818
H       11.02591100      10.68507800      11.99989000       1.03533061       1.20966011       0.32743027       1.03481352       1.21966314       0.32438773
O        8.65133000      11.82189100      14.01648800      -0.05776369      -0.05292606      -0.34292250      -0.08016953      -0.04368321      -0.31988856
H        9.35121600      12.48957600      14.14576600       0.19147773      -0.19271649       0.17518907       0.19888535      -0.18001267       0.17599097
H        8.35488500      12.01722200      13.12338500      -0.29690238       0.15429567      -0.09563096      -0.29062480       0.14932048      -0.10245413
O       14.16459800      10.26668100      13.65637600       1.53510878      -1.13638243      -0.01223578       1.52804041      -1.14471555      -0.01545887
H       13.43094200      10.42587000      13.09373000      -1.37328503       0.47573228      -0.55615028      -1.35529113       0.47838292      -0.54786068
H       14.18982100      10.93624600      14.31930800      -0.25329924       0.71639301       0.56817851      -0.25105634       0.71745485       0.56629312
27
Properties=species:S:1:pos:R:3:REF_forces:R:3:MACE_forces:R:3 REF_energy=-18719.468860640914 charge=0 spin=1 external_field="0.0 0.0 0.0" config_type=ORCA_DFT source_file=C_DFTprod_cutcluster_0423.out orca_step=0 MACE_energy=-18719.455078125 pbc="F F F"
O       12.00000000      12.00000000      12.00000000      -0.58129243      -0.50586417       0.36321998      -0.55948001      -0.47791564       0.40888560
H       12.71436600      12.62320400      12.02551000       0.78025891       0.55824094       0.18058607       0.76388812       0.54760540       0.15156022
H       12.37209100      11.20475800      12.40755900      -0.02536949      -0.11843638      -0.34828598      -0.03456054      -0.13836335      -0.34978172
O       11.52292800       9.11591700      10.15813500      -1.71438009      -0.39651155       0.42357231      -1.70707619      -0.39359739       0.42236876
H       12.41868300       9.16547200      10.45671800       0.79250487      -0.14440237       0.44640232       0.77258408      -0.15104094       0.44955248
H       10.96671800       8.77429500      10.92234700       1.17249486       0.73549137      -1.14714229       1.17070961       0.73334914      -1.14549208
O       15.32883300      10.39249600      11.52845700      -0.34964419       0.48819946      -0.06228986      -0.38350853       0.48545313      -0.07005398
H       14.81857100      11.24453800      11.57310100       0.68295437      -1.53310944       0.24355496       0.70517254      -1.55485427       0.24100459
H       14.86819300       9.66391000      11.98483300      -0.01121736       0.76779070      -0.39511390       0.02335925       0.79150617      -0.40898877
O       10.48616700       8.77569400      12.67919100       0.55987555       0.57519701       1.35924284       0.59095407       0.58455396       1.36441374
H       11.16284300       9.28573400      13.20542900      -1.18173705      -0.69639625      -0.79302536      -1.19461226      -0.71097910      -0.80053121
H        9.68160900       8.74261400      13.22532200       0.48414596       0.09367784      -0.27651065       0.47768962       0.09698159      -0.28547961
O        9.39578400      14.00413700      10.65553100       2.53218024      -0.92539090      -0.77270732       2.53078485      -0.92539024      -0.76990271
H       10.12661600      13.30643200      10.71715200      -1.58051544       1.32350682      -0.28506517      -1.57954240       1.34358144      -0.28198454
H        8.76217100      13.75475700      11.29773800      -0.94050642      -0.45142003       1.00774082      -0.93676937      -0.46470892       1.00049627
O       14.91012900      12.99835400      12.28346400      -1.30392149      -0.65351179      -0.42267474      -1.29552722      -0.63271326      -0.40660030
H       15.50014900      13.18417500      13.00277500       0.53801505       0.56188486       0.09875186       0.53319162       0.55935502       0.10296699
H       14.85812800      13.68554200      11.62003000       0.58292497       0.49969846       0.22475110       0.58693600       0.49324292       0.22724147
O       12.11751700      11.38789800      14.96651500       0.12027832      -0.94474931       0.32045116       0.10715468      -0.94214207       0.32473770
H       12.58364000      11.84102700      15.66656600       0.05490591       0.26932626       0.19973997       0.06695738       0.27127016       0.19183098
H       11.98571300      12.00859200      14.25987300      -0.21335556       0.69113115      -0.55411026      -0.21602319       0.68484157      -0.56397188
O       11.86165300      12.52484600       9.01182300       1.21495910      -0.54982043       2.45641080       1.21803594      -0.55678958       2.48555589
H       11.84945200      11.59518400       9.37104600      -0.32569627       0.91004193      -0.76994256      -0.32720295       0.92318809      -0.77538168
H       12.35933400      12.94354200       9.78257900      -1.00869203      -0.49666873      -1.73541383      -1.02172005      -0.50753570      -1.77369142
O       13.57989100       9.22147500      13.30785100       0.81760490       1.90651731       0.16269700       0.78930885       1.90674031       0.18707323
H       13.10765500       8.68574100      13.92313300      -0.45288037      -0.77286518       0.77612077      -0.44365034      -0.76387948       0.76688474
H       13.93299900       9.98042700      13.85234800      -0.64389483      -1.19155754      -0.70096006      -0.63705367      -1.20175922      -0.69271278
27
Properties=species:S:1:pos:R:3:REF_forces:R:3:MACE_forces:R:3 REF_energy=-18719.848466440355 charge=0 spin=1 external_field="0.0 0.0 0.0" config_type=ORCA_DFT source_file=C_DFTprod_cutcluster_0249.out orca_step=0 MACE_energy=-18719.845703125 pbc="F F F"
O       10.35602900      14.08276100      13.92226700      -0.37433069       0.89835102       1.14706963      -0.37346351       0.89880866       1.14549279
H       11.04640100      14.76667400      13.92205500      -0.18400862      -0.30688947      -0.13899950      -0.18585636      -0.30861485      -0.14468250
H        9.81536000      14.35302200      14.70934400       0.55924321      -0.54460314      -1.03697206       0.55685222      -0.54196787      -1.03078985
O       15.15579000      11.91891100      11.59353500      -1.28754953      -0.11819830      -0.74475726      -1.29281342      -0.10583480      -0.77038467
H       14.37433200      11.34556600      11.81751400       0.81943841       0.71411907      -0.23033713       0.81957054       0.71411109      -0.21650404
H       14.90068900      12.34029200      10.73598300       0.32778200      -0.60022387       0.84056665       0.33633614      -0.61217374       0.84905124
O       12.27590900      16.16003600       9.46438500      -0.04929762       0.48103580      -1.07770661      -0.04269708       0.50688362      -1.06029868
H       12.52005400      16.70206000       8.67502500      -0.16265185      -0.73872201       1.05820680      -0.16315860      -0.75807321       1.05371058
H       12.99148900      15.52245600       9.60537400       0.06377853      -0.01757838       0.10877253       0.06350298      -0.01594887       0.11292787
O        8.44427600      15.16611200      11.69205800      -0.11696170       0.04004915      -0.23107241      -0.11539355       0.02010009      -0.23816325
H        8.64672200      14.75255400      10.83461800       0.00640678       0.19599243       0.56118326       0.01312049       0.20761085       0.56548840
H        9.05508900      14.81824100      12.35204900       0.08379935      -0.26590017      -0.19389184       0.07895183      -0.25959709      -0.19572259
O       11.15286100      12.62997000      10.37316800      -0.65636119      -0.26333318      -2.28435139      -0.65526742      -0.26647502      -2.25822663
H       10.67471200      13.32936300       9.84961200       0.38517123      -0.61074277       1.02573999       0.37450913      -0.61133885       1.02854240
H       11.18603500      11.90596600       9.68794000       0.11517499       0.82345838       1.34677135       0.11502147       0.81740570       1.33906448
O       12.44632000      11.33188900      12.54765800       0.12375142      -0.08719655      -1.06297573       0.09389634      -0.09465462      -1.08675897
H       12.00000000      12.00000000      12.00000000      -0.16902413      -0.23645466      -0.10896120      -0.16150834      -0.22401798      -0.10113141
H       12.40498200      11.68278100      13.42105600      -0.08271944       0.29395605       1.12068446      -0.07024319       0.29991162       1.12137473
O       13.91029300      12.44454200       8.46703200      -0.86566659      -0.59213117      -1.30870148      -0.84909856      -0.58332151      -1.30308366
H       13.09192800      12.38641200       7.88904200       1.64175059       0.05437498       1.04243277       1.63875210       0.05046344       1.03298736
H       14.56679500      11.84741500       8.04704200      -0.67880404       0.53143642       0.29310614      -0.68240035       0.52994335       0.29686165
O       13.79228400      14.52653100      11.49017800       1.39926746      -3.38721162      -0.92597526       1.39622617      -3.38804936      -0.95860714
H       13.26529200      15.11073700      11.97417100      -1.35281580       0.94521570       1.41660241      -1.35235083       0.92319036       1.43343771
H       13.76461900      13.56168700      11.84837600       0.03515670       2.64442006      -0.55893118       0.03620806       2.66119051      -0.55465078
O        9.46516700      14.86741300       9.01981600       2.10402988       0.02281412      -1.27424304       2.12676501       0.03487074      -1.28720343
H       10.36976400      15.24810400       9.21057700      -1.01479187       0.08337780       0.24213762      -1.02968895       0.07159349       0.23756084
H        9.59123000      14.70706500       8.05301900      -0.66976749       0.04058430       0.97460239      -0.67577231       0.03398431       0.98970789
27
Properties=species:S:1:pos:R:3:REF_forces:R:3:MACE_forces:R:3 REF_energy=-18719.758898401673 charge=0 spin=1 external_field="0.0 0.0 0.0" config_type=ORCA_DFT source_file=C_DFTprod_cutcluster_0094.out orca_step=0 MACE_energy=-18719.751953125 pbc="F F F"
O       10.31161900      12.16092300      10.85139800       0.60655305      -2.32760243      -0.62304781       0.59378338      -2.34743237      -0.64235783
H        9.88090200      11.38044300      11.27219900       0.00688459       0.55046947      -0.17636427       0.02048556       0.58176303      -0.17797831
H       10.09323200      12.95042900      11.29646300      -0.61101500       1.36213353       0.68457828      -0.61709815       1.33832264       0.71585619
O       12.15730100       9.87339800      10.22363000       0.08257762      -0.14559171      -0.11483900       0.09679615      -0.13406412      -0.10709788
H       11.55653100       9.53042100       9.52396500       0.42303140       1.03151438       0.91432688       0.41575277       1.02560973       0.92298889
H       11.86582100      10.73527600      10.59199300      -0.38073392      -0.98822265      -1.06489815      -0.39028361      -0.97844505      -1.06335974
O       10.95594800      14.29992600      13.52212300       1.61096147       0.19176564      -0.86428940       1.62184644       0.19573709      -0.86592352
H       11.46459400      14.88760900      14.08902000      -0.24604302       0.05559404       0.17721906      -0.23696175       0.04286437       0.19561280
H       10.11928600      14.13680700      13.90130700      -1.46233961      -0.09658411       0.91665198      -1.47628641      -0.08876771       0.90137041
O        9.44102700       9.38311700      11.80331400       0.04536856       0.62830248       0.28955514       0.02425465       0.64500850       0.30088785
H       10.21194600       8.97309700      12.22619900       0.17662693       0.11457361       0.07847738       0.17292151       0.11137778       0.06697434
H        9.08772300       8.76112400      11.17437600      -0.10715613      -0.33411380      -0.22219743      -0.08334377      -0.34068233      -0.21995588
O       12.42504300      11.97793800      12.93023700      -0.40131185      -0.74252287      -2.92812965      -0.40741783      -0.73463231      -2.95137286
H       11.99512000      12.76058600      13.22513700      -0.45110775       1.23508709       1.15923280      -0.45218959       1.24120021       1.18046141
H       12.00000000      12.00000000      12.00000000       0.99919710      -0.39078411       1.78860486       1.00210392      -0.40742707       1.76012504
O       10.68909400      10.84742500      15.36123100       0.24329276       0.61260975       0.31243035       0.25635371       0.60849178       0.29881862
H       10.31002000      11.03645500      14.46952600       1.23296531       0.16800577       1.10705519       1.22866511       0.16716272       1.12304258
H       11.44758300      11.42864600      15.65386200      -1.49102927      -0.81834337      -1.35545628      -1.50315607      -0.81263649      -1.34629631
O       12.10415600       9.15797800      13.13072400       0.51651394       0.64103731      -0.53014562       0.51666850       0.64527678      -0.53735501
H       12.48844300       9.02681000      12.25043200      -0.16260280      -0.43748614      -0.09018088      -0.16167474      -0.43647033      -0.09275435
H       12.40681100      10.08443200      13.25787000      -0.56213776      -0.43771281       0.49539829      -0.56148565      -0.45154816       0.49978432
O       12.18688600      12.14180000       7.48345500       1.23718182      -0.38174318      -0.68255086       1.23466003      -0.38980326      -0.68304497
H       13.15108600      12.02734800       7.63546600      -1.09131186       0.12042884      -0.00534054      -1.09181428       0.12583908      -0.00379230
H       11.81898000      12.45898800       8.29805200      -0.22854337       0.23934411       0.75002309      -0.22122607       0.23692785       0.74813277
O       11.26106300      14.97831700      10.73712900      -0.92864731      -0.60475724       2.18581308      -0.92700750      -0.61944556       2.16242599
H       12.16689900      15.07665900      10.49194200       0.97246662       0.09551526      -0.33199017       0.97167826       0.10948133      -0.31589827
H       11.28437100      14.73845500      11.72007000      -0.02964148       0.65908316      -1.86993637      -0.02602442       0.66629159      -1.86929393
27
Properties=species:S:1:pos:R:3:REF_forces:R:3:MACE_forces:R:3 REF_energy=-18720.45851248962 charge=0 spin=1 external_field="0.0 0.0 0.0" config_type=ORCA_DFT source_file=C_DFTprod_cutcluster_0445.out orca_step=0 MACE_energy=-18720.451171875 pbc="F F F"
O        8.32850000      12.61738600      10.19217200      -0.80266453       0.79021041       0.01632717      -0.78787744       0.78356624       0.02542731
H        9.13721600      12.09150500      10.32298500      -0.49117304      -0.43158382       0.54100931      -0.52309507      -0.41773719       0.52809459
H        7.60367000      12.44695400      10.83412300       1.31573885      -0.23560573      -0.51732538       1.33763564      -0.23217437      -0.51909709
O       10.53669300      10.99967000      10.70594800       0.99284498       0.13229350      -0.82599868       0.99830949       0.10413367      -0.82462955
H       10.27752600      10.11694500      10.96050700      -0.16447086      -0.37309137       0.05809434      -0.15252116      -0.36055464       0.06229989
H       11.10607000      10.89810800       9.88810400      -0.44162865       0.40435383       0.58228050      -0.43875054       0.42205653       0.57786536
O       12.07907700      11.61957300       8.30518400       0.88641035       0.39061087       0.03178866       0.87440813       0.38953465       0.03615123
H       11.72389000      12.54701600       8.33635600       0.48546262      -0.78497421       0.06292791       0.50425482      -0.80464703       0.06110347
H       13.08413400      11.67373300       8.26422100      -1.88203115       0.27040556       0.24156760      -1.89440000       0.27935863       0.23988415
O       14.68794200      12.26452500       8.92549000       2.45978594       1.27034489      -1.05380569       2.46563768       1.26686871      -1.05552793
H       14.71403500      12.55604900       9.83938600      -0.32272988       0.00741594       0.34177091      -0.32981509       0.00432736       0.33845279
H       15.48036700      12.76499900       8.52327700      -1.95183506      -1.25359379       0.75705768      -1.94892371      -1.25018585       0.75551510
O       10.82664100      14.17501600       8.91524000      -0.03068627       0.54472033       1.45542098      -0.02860567       0.55515975       1.44609070
H       11.31468000      14.54948200       9.71371700      -0.70292140      -0.42889141      -1.31953518      -0.69551313      -0.41818252      -1.31748116
H        9.87766700      14.16110000       9.17139800       0.80457116      -0.13402324      -0.17209207       0.79070240      -0.14614753      -0.16396964
O       12.51062200      12.78725700      12.18114400       0.61260631       0.52542734       1.46818702       0.60788637       0.51197004       1.49884880
H       12.73750700      12.81897700      13.17174700      -0.37080195      -0.37250115      -1.89399146      -0.36964649      -0.37318683      -1.88122237
H       12.00000000      12.00000000      12.00000000      -0.47502369      -0.32345488      -0.19695145      -0.47238749      -0.33187270      -0.21496636
O       13.44911700      12.83302400      14.61963200       0.65571738      -0.97944131      -0.79346810       0.67226577      -0.98907596      -0.77737767
H       13.16239100      13.45710200      15.25007300      -0.45237551       1.01278713       1.29429718      -0.45827857       1.02155101       1.28158700
H       13.70128700      12.02599500      15.07680100      -0.03185648       0.05665894       0.09510033      -0.04432534       0.05953015       0.08529186
O       12.65762600      15.22984000      11.03543200       0.07084238       1.87879110      -1.06118465       0.06718305       1.87602639      -1.07558131
H       12.55603900      14.39218200      11.45232000      -0.15729136      -1.61158692       1.06041666      -0.16263449      -1.59829092       1.05761051
H       12.40895000      15.92375900      11.65739000       0.01094580      -0.31371559      -0.09877871       0.01235672      -0.31683207      -0.08969656
O        8.57677800      12.96632800      13.20513300       0.33091777       0.20000479       0.00825982       0.32984954       0.19529517       0.00092638
H        9.08229700      13.32155200      12.43085000      -0.28386735      -0.30724515       1.38616543      -0.29349303      -0.30148816       1.39462078
H        8.98464400      13.16305000      14.07856200      -0.06448636       0.06568403      -1.46754008      -0.06022295       0.07099747      -1.47022021
