12
Lattice="24.0 0.0 0.0 0.0 24.0 0.0 0.0 0.0 24.0" Properties=species:S:1:pos:R:3 selected_molecules=28,38,73 interaction_cutoff_A=1.7 source_xyz=C:\Users\shaoq\Documents\Mainz\mlip\outputsfull\r09_hot_w7n1\r09_hot_w7n1.xyz source_frame=500 source_time_ps=25.0 center_molecule=38 pbc="F F F"
O       11.53128443      12.88700159      12.29112246
O        9.51062176      11.65699837      12.77827388
H       11.10285361      13.53713188      11.61821663
H        9.03142719      10.78912616      12.97243872
H       10.96725988      12.05477578      12.39928678
H        9.54882340      12.35039901      13.53627202
H       13.52999091      11.27454164      11.68512167
H       12.18019943      11.01445209      12.19820519
O       12.88593201      10.55344114      12.07821528
H       13.77950613      12.77182568      11.90249915
O       14.21366891      12.87026315      10.83012059
H       13.61393506      12.72034687      10.04139474
