12
Lattice="24.0 0.0 0.0 0.0 24.0 0.0 0.0 0.0 24.0" Properties=species:S:1:pos:R:3 selected_molecules=36,50,83 interaction_cutoff_A=1.7 source_xyz=C:\Users\shaoq\Documents\Mainz\mlip\outputsfull\r09_hot_w7n1\r09_hot_w7n1.xyz source_frame=2982 source_time_ps=149.1 center_molecule=36 pbc="F F F"
H       10.83374724      11.84584003      12.01663010
O       11.28418933      12.62400032      12.40040472
H       12.28376671      12.47942322      12.40955230
H       13.69267209      13.06071489      11.43095101
O       13.64824465      11.64878235      11.96522686
H       13.71519850      11.33125565      12.88026852
H       12.67174534      13.92218083      12.29490389
O       13.07811046      13.91651478      11.46577966
H       14.37677600      11.11706111      11.66331405
H        9.82179334      10.65052643      11.43895952
O        9.88959513       9.96297840      12.17807938
H       10.18928805       9.17607182      11.71478520
