12
Lattice="24.0 0.0 0.0 0.0 24.0 0.0 0.0 0.0 24.0" Properties=species:S:1:pos:R:3 selected_molecules=11,21 interaction_cutoff_A=1.7 source_xyz=C:\Users\shaoq\Documents\Mainz\mlip\outputsfull\r09_hot_w7n1\r09_hot_w7n1.xyz source_frame=4844 source_time_ps=242.2 center_molecule=11 pbc="F F F"
H       11.07045556      11.05518072       9.80665336
O       10.75273047      11.81269204      10.42016158
H        9.98481676      12.07472674       9.77115741
H       10.11049735      11.80060667      13.86637812
H       14.26583289      12.35430236      10.83141350
H       13.42516536      11.98258396      11.71808067
O       14.28716314      11.51159521      11.47768564
H       11.71547049      11.93919816      13.36549719
O       12.07218136      12.68694930      12.07533924
H       11.59064657      13.53471727      12.44597577
O       11.00910122      11.90273376      14.22094053
H       11.91380374      12.62414951      11.11365563
