12
Lattice="24.0 0.0 0.0 0.0 24.0 0.0 0.0 0.0 24.0" Properties=species:S:1:pos:R:3 selected_molecules=13,15,40 interaction_cutoff_A=1.7 source_xyz=C:\Users\shaoq\Documents\Mainz\mlip\outputsfull\r09_hot_w7n1\r09_hot_w7n1.xyz source_frame=3604 source_time_ps=180.2 center_molecule=15 pbc="F F F"
H       14.06585235       9.86941997      14.39147708
H       13.76458121      10.55827179      12.78469891
O       14.05011325       9.80152377      13.32981014
H       11.42050208      14.08487029      11.82343028
H       11.98277129      11.99345249      12.65579413
O       12.91233876      12.06510794      13.18698130
O       11.35391408      13.00716083      11.64397152
H       11.16553442      12.85722750      10.75772524
H       12.82799697      11.38324711      13.91109764
O        9.80150582      13.05488849       9.78646135
H        9.08906212      12.46824476      10.15587366
H        9.81283377      13.91724252      10.35755998
