12
Lattice="24.0 0.0 0.0 0.0 24.0 0.0 0.0 0.0 24.0" Properties=species:S:1:pos:R:3 selected_molecules=14,76 interaction_cutoff_A=1.7 source_xyz=C:\Users\shaoq\Documents\Mainz\mlip\outputsfull\r09_hot_w7n1\r09_hot_w7n1.xyz source_frame=2828 source_time_ps=141.4 center_molecule=76 pbc="F F F"
O       12.07197927      10.81524335      10.94180502
H       13.03498099      11.11146198      11.10880131
H       11.17389014      10.74849778      13.08248891
O       10.51587431      10.25418241      12.65911904
O       12.43866558      13.26085675      11.06448688
H       11.77734270      12.03225035      10.78069011
H       12.42230782      13.30487944      10.19138048
H       11.49090424      13.88530376      11.33030075
H       11.32942494      10.58495640      11.97548914
H       13.02092434      13.29808241      12.53076348
O       12.94000561      13.55868873      13.40924683
H       12.28154440      12.79681874      13.81511617
