12
Lattice="24.0 0.0 0.0 0.0 24.0 0.0 0.0 0.0 24.0" Properties=species:S:1:pos:R:3 selected_molecules=40 interaction_cutoff_A=1.7 source_xyz=C:\Users\shaoq\Documents\Mainz\mlip\outputsfull\r09_hot_w7n1\r09_hot_w7n1.xyz source_frame=1742 source_time_ps=87.10000000000001 center_molecule=40 pbc="F F F"
O        9.80606642      11.63890680      10.05514537
O       13.55129264      11.77524578      14.43907726
O       13.45973596      12.02199365      11.95657180
H       13.27236579      11.61909687      11.07238728
H       13.11613447      11.23004651      14.99488802
H       13.62990937      11.76368115      13.06831372
H       10.47444031      12.13928601      10.88867923
H       14.50597125      11.30296200      14.57210525
H       12.03698540      12.25866706      11.89632552
H       10.28452620      11.50313664       9.30232610
O       11.16726584      12.73137177      11.54679679
H        8.92789204      11.52427415      10.24320724
