12
Lattice="24.0 0.0 0.0 0.0 24.0 0.0 0.0 0.0 24.0" Properties=species:S:1:pos:R:3 selected_molecules=9,53 interaction_cutoff_A=1.7 source_xyz=C:\Users\shaoq\Documents\Mainz\mlip\outputsfull\r09_hot_w7n1\r09_hot_w7n1.xyz source_frame=2206 source_time_ps=110.3 center_molecule=53 pbc="F F F"
O       12.53393103      11.36487383      13.22141122
H       12.52060200      12.31685635      12.88678728
H       13.36231557       9.75753233      10.53325376
O       12.63348664      10.34744629      10.91131288
H       13.04278903      11.24976016      14.05624947
H       12.74416347      10.64846522      11.85597242
O       10.39406912      12.73161946      12.38622920
H        9.88103894      13.41742548      11.94939683
H       11.56706026      13.05296122      11.86028959
H       11.89417989      14.23178015      11.45828600
H       10.15014524      11.89718765      11.66755175
O       12.49129195      13.52002415      11.46417506
