12
Lattice="24.0 0.0 0.0 0.0 24.0 0.0 0.0 0.0 24.0" Properties=species:S:1:pos:R:3 selected_molecules=17,23 interaction_cutoff_A=1.7 source_xyz=C:\Users\shaoq\Documents\Mainz\mlip\outputsfull\r09_hot_w7n1\r09_hot_w7n1.xyz source_frame=1896 source_time_ps=94.8 center_molecule=17 pbc="F F F"
H       12.84580312      11.03268635      11.87257833
H       10.11947272       9.62841790      10.27147873
H       11.89290633      10.84468898      13.20415503
H       10.12858557      11.15242077      10.80680868
O        9.90886685      10.10343348      11.09172949
H       11.09085832      10.32091939      11.67907482
N       11.81103070      10.94032914      12.29692196
H       13.15976971      13.80116770      12.08510793
H       13.00656429      12.27554715      11.43335738
O       13.24964275      13.22346432      11.26489585
O       13.06397378      13.85483804      13.48050904
H       12.85066453      12.91262226      13.10646832
