12
Lattice="24.0 0.0 0.0 0.0 24.0 0.0 0.0 0.0 24.0" Properties=species:S:1:pos:R:3 selected_molecules=24,48,60 interaction_cutoff_A=1.7 source_xyz=C:\Users\shaoq\Documents\Mainz\mlip\outputsfull\r09_hot_w7n1\r09_hot_w7n1.xyz source_frame=810 source_time_ps=40.5 center_molecule=60 pbc="F F F"
H       11.58221547      15.33619468      12.50403205
O       12.24820798      12.24535492      12.46658644
H       12.32545169      13.38046255      12.42780700
H       13.17141931      15.66638020      12.74643369
O       12.41278160      14.88155819      12.72059732
H       11.39212527      11.85914006      12.50800148
H       12.14793597      10.99580329      10.31462531
O       12.79994174      10.30643433      10.59554290
H       12.72350157      10.02833200      11.50208480
O       10.60828062      10.48718041      12.22150620
H       10.25179424       9.94372120      11.57366355
H       11.30702284      10.05134976      12.35616794
