12
Lattice="24.0 0.0 0.0 0.0 24.0 0.0 0.0 0.0 24.0" Properties=species:S:1:pos:R:3 selected_molecules=17,42,54 interaction_cutoff_A=1.7 source_xyz=C:\Users\shaoq\Documents\Mainz\mlip\outputsfull\r09_hot_w7n1\r09_hot_w7n1.xyz source_frame=2672 source_time_ps=133.6 center_molecule=42 pbc="F F F"
O       10.99963708      11.75738281      11.01719530
H       11.46483007      12.31172142      10.20184839
H       11.11338710      10.72803604      10.87847028
O       12.94127507      10.19828754      11.53635043
H       13.80037520      10.43094594      11.92307635
H       12.19552716      10.44965690      12.07233887
H       10.42322262      13.64076099      11.70569260
H       13.04319143      11.44597240      12.54722063
O       13.04937137      12.50198737      12.95085767
O       10.91683778      13.58472198      12.57232175
H       13.61544502      13.20835506      12.96702147
H       11.81819424      13.11189971      12.48654821
