12
Lattice="24.0 0.0 0.0 0.0 24.0 0.0 0.0 0.0 24.0" Properties=species:S:1:pos:R:3 selected_molecules=19,31 interaction_cutoff_A=1.7 source_xyz=C:\Users\shaoq\Documents\Mainz\mlip\outputsfull\r09_hot_w7n1\r09_hot_w7n1.xyz source_frame=656 source_time_ps=32.8 center_molecule=31 pbc="F F F"
O       11.69896073      10.06406766      14.84040461
H       12.56074329       9.70578004      14.92838484
H       11.99346308      10.83391181      14.11402761
H       11.78364659       9.97004302      11.31977847
O       11.79290158      12.65897766      10.51024492
O       12.40179997      14.84845497      10.74053292
H       11.43135069      10.72177367      12.54089337
H       10.78865761      12.42791135      10.44378606
O       12.18818339      10.52745220      11.84974648
H       12.13694943      11.78783599      11.26505076
H       12.11656706      13.75017671      10.95379385
H       11.88956571      15.23199103      11.37186242
