12
Lattice="24.0 0.0 0.0 0.0 24.0 0.0 0.0 0.0 24.0" Properties=species:S:1:pos:R:3 selected_molecules=10,12 interaction_cutoff_A=1.7 source_xyz=C:\Users\shaoq\Documents\Mainz\mlip\outputsfull\r09_hot_w7n1\r09_hot_w7n1.xyz source_frame=4068 source_time_ps=203.4 center_molecule=12 pbc="F F F"
H       11.38789423      12.49947291      11.19696641
O       13.03387472      11.49985245      10.55109351
H       11.62424367      11.54056172      12.39314516
O       10.94879143      14.52289240      12.29848342
H       13.99082880      11.96248600      10.39114237
H       11.38420612      14.65999644      11.36007695
O       11.41182293      12.47806396      12.28531421
H       10.49244327      13.63457987      12.58046819
H       12.50702527      12.19331658      11.10249344
H       12.67915644      10.40159490      12.53697485
H       11.69167582       9.26796250      13.48470809
O       12.62079103       9.48911238      12.92521618
