12
Lattice="24.0 0.0 0.0 0.0 24.0 0.0 0.0 0.0 24.0" Properties=species:S:1:pos:R:3 selected_molecules=17,42,47 interaction_cutoff_A=1.7 source_xyz=C:\Users\shaoq\Documents\Mainz\mlip\outputsfull\r09_hot_w7n1\r09_hot_w7n1.xyz source_frame=2518 source_time_ps=125.9 center_molecule=42 pbc="F F F"
H       11.78480520       9.72892903       9.55201139
O       11.31463133      10.30583415       9.00374737
H       11.22801506      11.10659358       9.51840163
H       12.17012971      10.92485648      12.20788605
O       11.45130808      10.76088102      11.52057819
H       12.18148422      10.12501351      11.03315709
O       13.38371816      13.77767445      14.46906018
O       11.75852469      13.23074876      12.87512214
H       11.55454138      12.34784798      12.57656025
H       12.48763319      13.00879276      13.60445732
H       12.86506957      14.57599115      14.56612048
H       13.18565520      12.98937737      15.02845172
