12
Lattice="24.0 0.0 0.0 0.0 24.0 0.0 0.0 0.0 24.0" Properties=species:S:1:pos:R:3 selected_molecules=2,11,32 interaction_cutoff_A=1.7 source_xyz=C:\Users\shaoq\Documents\Mainz\mlip\outputsfull\r09_hot_w7n1\r09_hot_w7n1.xyz source_frame=4690 source_time_ps=234.5 center_molecule=11 pbc="F F F"
H       11.18730735      12.99283294      15.15234779
O       12.76115130      11.36997217      12.81956332
H       13.07902026      12.27786949      12.44044746
O       11.29705557      12.27890550      14.49149996
H       10.36495277      11.80300565      14.68453340
H       12.18691229      11.81318307      13.44534267
O       11.23265270      12.84178921      11.54263709
H       11.31835894      11.84552857      12.07635679
H       11.74219865      12.69457512      10.69373101
H       11.97809242      10.97325593       9.06410752
O       12.79918105      11.45615821       9.08691304
H       12.71403044      12.44374275       9.38571867
