12
Lattice="24.0 0.0 0.0 0.0 24.0 0.0 0.0 0.0 24.0" Properties=species:S:1:pos:R:3 selected_molecules=12,24,46 interaction_cutoff_A=1.7 source_xyz=C:\Users\shaoq\Documents\Mainz\mlip\outputsfull\r09_hot_w7n1\r09_hot_w7n1.xyz source_frame=1276 source_time_ps=63.8 center_molecule=12 pbc="F F F"
H       12.08805629      10.93467322      11.86057658
H       13.43071025      10.25545660      12.59631413
O       13.10108681      11.04301597      12.21136440
H       10.27776032      11.68809214      12.13633767
H       10.53870507      10.27430269      11.54496079
O       10.84920829      11.06905854      11.98989412
H       14.03819231      12.20020858      11.49229023
O       14.80574074      12.91276795      11.35335173
H       14.84996633      13.68183225      11.88652348
H        9.09857417      12.44129525      13.01445321
H        8.76654223      13.43525616      11.87207408
O        9.42739970      13.04376146      12.41996575
