11
Lattice="24.0 0.0 0.0 0.0 24.0 0.0 0.0 0.0 24.0" Properties=species:S:1:pos:R:3 selected_molecules=2,31,40 interaction_cutoff_A=1.7 source_xyz=C:\Users\shaoq\Documents\Mainz\mlip\outputsfull\r09_hot_w7n1\r09_hot_w7n1.xyz source_frame=1586 source_time_ps=79.3 center_molecule=40 pbc="F F F"
H       13.70031525      15.22597185      11.86631862
H       13.88582989      14.99531909      11.01556780
H       12.24125386      11.12200369      11.34228221
O       12.37575285      10.19217527      10.90046577
H       13.45303642      10.05253911      10.93503000
H       11.44328944      12.68990075      12.30144708
O       12.45723882      13.65834599      12.90746184
H       12.05289367      13.05039377      13.61877033
H       12.60263284      14.56042497      12.92193359
O       10.94423317      11.67124885      12.19879887
H       10.15664126      11.89392285      11.89188756
