12
Lattice="24.0 0.0 0.0 0.0 24.0 0.0 0.0 0.0 24.0" Properties=species:S:1:pos:R:3 selected_molecules=2,13,49,65 interaction_cutoff_A=1.7 source_xyz=C:\Users\shaoq\Documents\Mainz\mlip\outputsfull\r09_hot_w7n1\r09_hot_w7n1.xyz source_frame=2362 source_time_ps=118.10000000000001 center_molecule=13 pbc="F F F"
H       12.40585034      12.02716349      13.05815781
O       12.58872033      12.86275319      13.49516912
H       13.23042838      13.15235633      12.74960571
H       11.51267214      12.45011350      11.74176212
O       11.94911105      11.55303493      11.61263931
H       12.11332566      11.32815699      10.69369297
O       11.01991101      14.45940900      11.48397403
H       10.57268910      13.45439139      11.65996037
H       11.01932442      14.84069961      12.44036012
H       12.69269577      10.08281591      11.36350726
O       12.41473952       9.13019477      11.49342446
H       12.88978168       8.57872279      10.94054726
