12
Lattice="24.0 0.0 0.0 0.0 24.0 0.0 0.0 0.0 24.0" Properties=species:S:1:pos:R:3 selected_molecules=36,53,64 interaction_cutoff_A=1.7 source_xyz=C:\Users\shaoq\Documents\Mainz\mlip\outputsfull\r09_hot_w7n1\r09_hot_w7n1.xyz source_frame=4534 source_time_ps=226.7 center_molecule=64 pbc="F F F"
H       10.54878647      10.70849420      11.79694485
H        8.87975279      11.04592397      11.36811030
O        9.73515447      10.51416146      11.23068976
H       12.16842170      15.09007178      12.74661906
O       12.90753338      12.59719886      12.46139500
H       12.54087182      11.70227407      12.40463123
H       12.54754515      13.09428830      13.22426607
O       12.86567374      14.73291633      12.24186021
H       12.54115295      13.86926474      11.97733658
H       11.79287183      10.37382353      11.22539595
O       12.59624034      10.14992462      12.06121252
H       13.32035295      10.20789709      11.33355635
