12
Lattice="24.0 0.0 0.0 0.0 24.0 0.0 0.0 0.0 24.0" Properties=species:S:1:pos:R:3 selected_molecules=2,40 interaction_cutoff_A=1.7 source_xyz=C:\Users\shaoq\Documents\Mainz\mlip\outputsfull\r09_hot_w7n1\r09_hot_w7n1.xyz source_frame=3448 source_time_ps=172.4 center_molecule=2 pbc="F F F"
H       13.65110554      12.65017097      11.67655722
H       12.40650067      13.92821131      12.12588917
H       11.03573490      14.10622742      12.15287907
O       13.07773672      12.91206090      12.40608797
H       12.16930533      12.47011117      12.22735968
O       11.57085151      14.30985536      11.51875154
H       10.40638076      11.51970436      12.75400714
O       10.93374613      11.33065818      11.87167735
H       10.84089962      12.05200494      11.27910361
O       12.43264152       9.42055850      12.15983115
H       13.45006257       9.53004559      12.57415894
H       11.80231301      10.16995896      11.90289038
