12
Lattice="24.0 0.0 0.0 0.0 24.0 0.0 0.0 0.0 24.0" Properties=species:S:1:pos:R:3 selected_molecules=11,12,24 interaction_cutoff_A=1.7 source_xyz=C:\Users\shaoq\Documents\Mainz\mlip\outputsfull\r09_hot_w7n1\r09_hot_w7n1.xyz source_frame=5000 source_time_ps=249.99999999999997 center_molecule=12 pbc="F F F"
H       14.56730379      11.62228974      10.74398655
H       15.82189206      11.65655214      10.39681297
O       14.98351792      12.10093111      10.09032489
O       12.62607152      11.63614382      11.82365294
H       12.32824571      12.64705529      11.45279885
H       13.21984635      10.97136301      11.43459822
H        9.99009279      12.65932588      12.72156747
H        9.01483002      11.58394197      11.50261947
O       11.02657180      12.37940963      13.66676303
O        9.23370019      11.89471650      12.47456337
H       11.32326033      11.98638379      12.79745921
H       11.80009146      12.69530469      14.07236734
