12
Lattice="24.0 0.0 0.0 0.0 24.0 0.0 0.0 0.0 24.0" Properties=species:S:1:pos:R:3 selected_molecules=34,55,65 interaction_cutoff_A=1.7 source_xyz=C:\Users\shaoq\Documents\Mainz\mlip\outputsfull\r09_hot_w7n1\r09_hot_w7n1.xyz source_frame=1432 source_time_ps=71.6 center_molecule=34 pbc="F F F"
O       11.52628098      13.13593887      12.63378929
H       10.64636319      13.13041561      12.92120501
H       12.00676048      13.68674787      13.18962489
O        9.06164410      12.80851904      12.79432854
H        8.50024936      13.50991692      12.46637224
H        8.67935327      13.22038498      13.73824707
H       13.74956990      11.29497252      11.15299447
O       13.81421304      12.16347650      11.90690260
H       14.13022373       9.65476658      11.39071010
H       13.03992033       9.15338541      10.61743320
O       13.74534497       9.87686020      10.58325411
H       12.90670468      12.59075023      11.82056137
