12
Lattice="24.0 0.0 0.0 0.0 24.0 0.0 0.0 0.0 24.0" Properties=species:S:1:pos:R:3 selected_molecules=13,19 interaction_cutoff_A=1.7 source_xyz=C:\Users\shaoq\Documents\Mainz\mlip\outputsfull\r09_hot_w7n1\r09_hot_w7n1.xyz source_frame=3294 source_time_ps=164.7 center_molecule=19 pbc="F F F"
H       10.45132528       9.83691978      13.19416683
O       11.00301099       9.28629376      12.65720223
H       11.38117525       9.96790024      12.02463149
O       11.36035667      12.34676731      11.88954083
H       12.20504845      13.34695530       9.07115114
O       13.26146275      12.59060251      13.33269663
H       12.16137629      13.04184951      10.86587594
H       13.13253502      12.35148589      14.22918279
O       12.35752920      13.78546867      10.07319720
H       13.24857331      13.56753713      13.08480888
H       12.30634560      12.23009132      12.84728991
H       11.39360945      11.51231362      11.43464128
