11
Lattice="24.0 0.0 0.0 0.0 24.0 0.0 0.0 0.0 24.0" Properties=species:S:1:pos:R:3 selected_molecules=16,73,76 interaction_cutoff_A=1.7 source_xyz=C:\Users\shaoq\Documents\Mainz\mlip\outputsfull\r09_hot_w7n1\r09_hot_w7n1.xyz source_frame=2052 source_time_ps=102.60000000000001 center_molecule=16 pbc="F F F"
H       12.56988703      13.16168453      11.39684236
H       11.56077850      12.97064966      10.31476085
H       12.59661108      11.58036481      10.76398118
N       12.51235269      12.61417998      10.49700605
H       11.82439023      11.14998577      12.05355542
H       11.82380438       9.58064355      11.39588562
H       10.47079336       9.76317864      12.26211472
N       11.37965368      10.35429001      11.90069635
H       12.46326426      13.72116451      12.89453183
O       12.15954091      13.02066298      13.50889440
H       11.65889542      12.20631031      13.23438071
