12
Lattice="24.0 0.0 0.0 0.0 24.0 0.0 0.0 0.0 24.0" Properties=species:S:1:pos:R:3 selected_molecules=36,51,75 interaction_cutoff_A=1.7 source_xyz=C:\Users\shaoq\Documents\Mainz\mlip\outputsfull\r09_hot_w7n1\r09_hot_w7n1.xyz source_frame=4380 source_time_ps=218.99999999999997 center_molecule=51 pbc="F F F"
H       14.27964789      12.91117615      12.07247833
O       15.16837151      12.33207693      12.07615917
H       15.55065238      13.13069544      12.53812090
O       10.98316448      12.26890777      12.21641399
H       10.04715949      12.71297614      11.74997740
H       13.34888390      11.29563256      10.73785632
H       11.93019389      12.64311153      12.17774505
O       12.99331887      12.02022533      11.33943928
H       13.12434296      13.04620144      10.94897349
H        9.23230230      10.86470448      13.25926675
O        8.78981709      11.25461763      12.40993464
H        9.52370553      11.36636867      11.84979678
