12
Lattice="24.0 0.0 0.0 0.0 24.0 0.0 0.0 0.0 24.0" Properties=species:S:1:pos:R:3 selected_molecules=19,28,65 interaction_cutoff_A=1.7 source_xyz=C:\Users\shaoq\Documents\Mainz\mlip\outputsfull\r09_hot_w7n1\r09_hot_w7n1.xyz source_frame=966 source_time_ps=48.3 center_molecule=65 pbc="F F F"
O        9.18033384      10.91613115      12.87299097
H       12.06335092      11.67021966      14.05798233
H       12.23574163      11.72423530      12.56062224
O       11.61922461      11.30321664      13.28572204
H       10.17367334      11.39699079      12.90942818
H        9.13430749      10.21399949      13.50157917
O       14.35751960      12.30574290      10.19353851
H       14.80123745      11.88435871       9.32849600
H       13.84949501      11.53308342      10.56862650
O       12.74018649      13.57497653      11.64831097
H       12.23032440      12.95469137      12.11016019
H       13.14248946      13.03415211      10.95417754
