12
Lattice="24.0 0.0 0.0 0.0 24.0 0.0 0.0 0.0 24.0" Properties=species:S:1:pos:R:3 selected_molecules=5,8,28,62 interaction_cutoff_A=1.7 source_xyz=C:\Users\shaoq\Documents\Mainz\mlip\outputsfull\r09_hot_w7n1\r09_hot_w7n1.xyz source_frame=4224 source_time_ps=211.2 center_molecule=8 pbc="F F F"
O       13.52551263       9.46953418      12.61173231
H       14.28531276       9.86561387      13.09319713
H       12.76738361       9.26330435      12.02345172
O       12.21714643      11.40634231      11.88843863
H       12.66646421      12.36101493      11.95350469
H       12.83045097      10.79121878      11.56243669
H       11.08944359      14.06952141      13.36381169
O       10.80213989      13.28117770      12.88973323
H       11.34053964      12.40148900      12.95862727
O       11.29864954      13.86236059      10.60701505
H       11.95781895      13.67957808       9.88172578
H       11.54737556      13.26010784      11.21214319
