12
Lattice="24.0 0.0 0.0 0.0 24.0 0.0 0.0 0.0 24.0" Properties=species:S:1:pos:R:3 selected_molecules=16,42 interaction_cutoff_A=1.7 source_xyz=C:\Users\shaoq\Documents\Mainz\mlip\outputsfull\r09_hot_w7n1\r09_hot_w7n1.xyz source_frame=3914 source_time_ps=195.7 center_molecule=42 pbc="F F F"
H       11.48161372      11.73805043      12.56423721
H       10.77606277      11.80008546      15.14347420
O       12.26835334      12.33754852      12.98428441
O       12.50840197      13.17664645      10.64361185
H       12.50249013      12.74900195      12.07298514
O       10.37436837      12.01052944      14.24607562
H       12.27643673      12.56020274      10.09291445
H       13.46535132      13.27041801      10.13322312
H       11.13035557      12.67943592      13.91937930
H       13.31125928      11.25111375      10.29411463
H       12.57226514      10.06159653       9.51202882
O       12.75337276      10.46835115      10.26889856
