12
Lattice="24.0 0.0 0.0 0.0 24.0 0.0 0.0 0.0 24.0" Properties=species:S:1:pos:R:3 selected_molecules=16,31,67 interaction_cutoff_A=1.7 source_xyz=C:\Users\shaoq\Documents\Mainz\mlip\outputsfull\r09_hot_w7n1\r09_hot_w7n1.xyz source_frame=1120 source_time_ps=55.99999999999999 center_molecule=67 pbc="F F F"
H       13.42616833      12.26080267      10.00724822
O       12.48200017      12.79432445      10.99966369
O       10.90294871      11.04540585      11.08846963
H       12.09604731      13.57248183      10.70356043
H       10.41720238      11.02818071      10.05137294
H       11.58309530      11.92086984      10.97602759
H       11.69750387      12.69334149      13.55783153
O       10.76437549      12.31604754      13.59577626
H       10.50471946      11.95624145      12.68153335
H       13.90301598      12.26992741      11.73509841
O       13.82109746      11.75298434      12.53067872
H       12.84171287      11.74628327      12.88137716
