7
Properties=species:S:1:pos:R:3:REF_forces:R:3 REF_energy=-4163.811476384329 charge=1 spin=1 external_field="_JSON [0.0, 0.0, 0.0]" config_type=ORCA_DFT source_file=r09_hot_w_h2formation_frame_001.out orca_step=0 pbc="F F F"
O        8.63691100      10.49791600       6.64683300      -7.00435104       2.59492818      -0.08281668
H        9.54627000       9.26029300       7.39471000       0.47300419      -2.07063737       3.81013405
H        9.00000000       9.00000000       9.00000000      -0.73768241       0.37078555       0.26970057
H        7.71143200      11.05545600       6.45832000       2.31322452      -1.35812143      -1.14698741
O        9.66632100       8.85263200       8.34092900       0.90811905       0.53711064      -3.28885000
H        7.88376000      10.13409300       7.52008500       4.22808778       1.02881796      -1.45957213
H        9.22957400      11.29582700       6.36612800      -0.18040214      -1.10288353       1.89839165
10
Properties=species:S:1:pos:R:3:REF_forces:R:3 REF_energy=-6244.226155022379 charge=1 spin=1 external_field="_JSON [0.0, 0.0, 0.0]" config_type=ORCA_DFT source_file=r09_hot_w_h2formation_frame_002.out orca_step=0 pbc="F F F"
H        7.33630100      10.78414500       8.91610900      -0.92984868       0.73931712       1.24438641
H        6.15125500      10.20980200       7.90389500       1.36753475      -0.66847551       3.84799401
O        8.66059700      10.50568800       6.66831000      -2.48089707       0.87432447       0.50295574
H        9.63574200       9.28650100       7.51080600       0.08885224      -0.72739085       0.84214552
H        9.00000000       9.00000000       9.00000000       1.46503706      -0.40624791      -1.43762046
H        7.75543300      10.89224100       6.66249100       0.49791124       1.01826671      -2.52820789
O        9.74297000       8.81945500       8.34672500      -0.89860571       0.08174813       1.32338495
H        7.93975700      10.16735900       7.70560500       1.65315467      -0.98221625       0.66899785
O        6.75342700      10.00868900       8.80552900       0.29239749       0.97270301      -5.82606040
H        9.31863000      11.21446200       6.33048300      -1.05553604      -0.90202888       1.36202431
10
Properties=species:S:1:pos:R:3:REF_forces:R:3 REF_energy=-6243.77944427738 charge=1 spin=1 external_field="_JSON [0.0, 0.0, 0.0]" config_type=ORCA_DFT source_file=r09_hot_w_h2formation_frame_003.out orca_step=0 pbc="F F F"
H        7.53859000      10.77948200       8.93799100      -3.69888982      -1.40683700       1.20607481
H        6.10253700      10.16886500       8.11168800       1.44111027      -0.11560272       2.35509087
O        8.62457500      10.52619800       6.75726100      -0.69762097      -2.15848636       2.08135712
H        9.66561300       9.35057900       7.70551000       0.32622797       1.16786461      -2.37456595
H        9.00000000       9.00000000       9.00000000       0.85730922      -0.75158432      -0.02004247
H        7.74251700      10.81792400       6.82376400      -1.82428530       2.15446588      -2.60337811
O        9.76596100       8.79868700       8.42105900      -0.58466705      -1.38610794       3.07954321
H        8.05975600      10.17703500       7.94022300       1.14391242      -1.04038263      -0.69717555
O        6.76364300       9.99879600       8.90741600       3.20595094       2.80497673      -3.50493755
H        9.31677400      11.11223200       6.40733900      -0.16904768       0.73169375       0.47803363
10
Properties=species:S:1:pos:R:3:REF_forces:R:3 REF_energy=-6243.655617358854 charge=1 spin=1 external_field="_JSON [0.0, 0.0, 0.0]" config_type=ORCA_DFT source_file=r09_hot_w_h2formation_frame_004.out orca_step=0 pbc="F F F"
H        7.56171200      10.72687600       9.00936300      -4.00348817      -0.49988194       1.14731677
H        6.09802900      10.11359400       8.35842000      -2.11843906       1.01341160      -2.50070068
O        8.55833500      10.56737000       6.84004200      -4.37580189      -1.47469479       3.14099299
H        9.68618900       9.52599500       7.77365400       1.25303812      -2.70603913       1.76310831
H        9.00000000       9.00000000       9.00000000      -1.44338009      -0.54947245       1.88868609
H        7.60692700      10.89969400       6.85759100       1.92154114       0.44013885      -1.78234628
O        9.75757000       8.80234300       8.49268600       0.83804281       2.21235401      -2.86039223
H        8.20984800      10.18168200       8.15402900       0.60822551      -0.59867406      -2.83241420
O        6.75377200      10.02805200       8.99246800       6.81773146       0.75760707       2.25378169
H        9.27117100      11.08358400       6.47905200       0.50253022       1.40525083      -0.21803244
10
Properties=species:S:1:pos:R:3:REF_forces:R:3 REF_energy=-6243.948516738519 charge=1 spin=1 external_field="_JSON [0.0, 0.0, 0.0]" config_type=ORCA_DFT source_file=r09_hot_w_h2formation_frame_005.out orca_step=0 pbc="F F F"
H        7.49660700      10.68902600       9.02600900       0.83203645       4.10286168       0.81368407
H        6.08682200      10.10400900       8.37538500      -0.04395301       0.77893499      -0.67617437
O        8.53926300      10.63589000       6.83174600      -2.76466471       0.46825443       2.14683639
H        9.83282700       9.63752100       7.79766600       0.79697267      -2.85972498       1.82861411
H        9.00000000       9.00000000       9.00000000       0.47430198      -0.89971993       0.24977781
H        7.59305900      11.05556200       6.72190900       2.80188523      -0.63028388      -0.44514597
O        9.80712900       8.84327200       8.46010500      -0.93180318       3.10281838      -1.38707226
H        8.44191200      10.23903600       8.22427200       0.27556289      -0.26649887      -3.76333005
O        6.81734000      10.09246900       8.98949300      -0.57486091      -3.92297592       0.81911219
H        9.29010300      11.14585700       6.43282100      -0.86547741       0.12633415       0.41369814
7
Properties=species:S:1:pos:R:3:REF_forces:R:3 REF_energy=-4164.742044538893 charge=1 spin=1 external_field="_JSON [0.0, 0.0, 0.0]" config_type=ORCA_DFT source_file=r09_hot_w_h2formation_frame_006.out orca_step=0 pbc="F F F"
O        8.47997000      10.74283900       6.81402800       0.70214704      -0.30451346       2.57790788
H        9.99416000       9.66231900       7.87503300       0.96622347       1.43148282      -1.18917711
H        9.00000000       9.00000000       9.00000000       1.42526656      -0.40177845      -0.68930499
H        7.67162400      11.22295600       6.56614700      -0.34788072       0.00548231       0.30577952
O        9.82027400       8.92717900       8.41265300      -2.48361627      -0.89292193       2.36578630
H        8.64539500      10.39384900       8.21494300       0.11193880       0.49163394      -3.99944244
H        9.22900600      11.23314500       6.38548100      -0.37407888      -0.32938518       0.62845083
7
Properties=species:S:1:pos:R:3:REF_forces:R:3 REF_energy=-4164.758622580527 charge=1 spin=1 external_field="_JSON [0.0, 0.0, 0.0]" config_type=ORCA_DFT source_file=r09_hot_w_h2formation_frame_007.out orca_step=0 pbc="F F F"
O        8.34423400      10.84859200       6.85640200       1.94271731      -1.38670984       3.10524771
H       10.11528600       9.74022000       7.95227700       0.40837755       0.37179980       0.22510334
H        9.00000000       9.00000000       9.00000000      -1.10461784       0.31488123       1.11842919
H        7.66105600      11.38242400       6.48457600      -2.43250211       0.79545860       0.49110126
O        9.74777500       9.00220800       8.43224900       0.59407426      -0.10812893      -0.98666605
H        8.74525100      10.59929100       8.19887200      -1.07563857      -0.03229532      -3.66202163
H        9.06499300      11.28471200       6.41090200       1.66758946       0.04499451      -0.29119381
7
Properties=species:S:1:pos:R:3:REF_forces:R:3 REF_energy=-4160.850982260821 charge=1 spin=1 external_field="_JSON [0.0, 0.0, 0.0]" config_type=ORCA_DFT source_file=r09_hot_w_h2formation_frame_011.out orca_step=0 pbc="F F F"
H       10.53584500       9.11510000       8.39248100      -0.21918687      -0.12338663       0.89188675
H        9.00000000       9.00000000       9.00000000      -1.38402494       0.79878185       2.55304279
O       10.49812700      12.28347200       8.39793300       5.78971456      -1.47454140       0.22829048
H       10.30443400      13.04077800       8.83582900      -2.08326899       3.77240867       2.23244503
H        9.90273800      11.72089900       8.05608400      -3.76416823      -2.50055614      -3.20861383
O        9.67237100       8.66596100       8.46455200       1.23988950       0.62822345      -3.24806109
H        8.99042400      10.86881400       8.19128100       0.42104502      -1.10092980       0.55100987
7
Properties=species:S:1:pos:R:3:REF_forces:R:3 REF_energy=-4161.340979243004 charge=1 spin=1 external_field="_JSON [0.0, 0.0, 0.0]" config_type=ORCA_DFT source_file=r09_hot_w_h2formation_frame_012.out orca_step=0 pbc="F F F"
H       10.57549300       8.78219600       8.54468200      -1.89466133      -0.95622378       0.19978861
H        9.00000000       9.00000000       9.00000000       1.14159997      -1.57319973      -0.07566567
O       10.44905300      12.04901900       8.47587000      -0.04101918       0.12805329       1.29520021
H       10.12034300      12.88333700       8.97172800      -0.45237052      -1.83092826      -1.18704319
H        9.87176800      11.40196800       7.98255900       0.19480350       1.11992058      -1.11061848
O        9.62598000       8.40729500       8.46873600       0.44848903       3.46615339       0.19095009
H        9.02411300      10.71191300       8.28535500       0.60315858      -0.35377554       0.68738844
13
Properties=species:S:1:pos:R:3:REF_forces:R:3 REF_energy=-8319.179953307717 charge=1 spin=1 external_field="_JSON [0.0, 0.0, 0.0]" config_type=ORCA_DFT source_file=r09_hot_w_h2formation_frame_013.out orca_step=0 pbc="F F F"
H        8.72215800      13.54885900       9.46676500       1.11518291       0.89657254       3.38930804
H       10.46019000       8.49260900       8.71780800      -0.79008839      -0.74557971      -0.24169544
H        9.00000000       9.00000000       9.00000000       0.91759655      -2.82814190      -0.66204965
O       10.34682000      11.88576200       8.60069300      -1.40586121      -1.00752650      -0.30637216
H        9.85747100      12.68061400       9.07923600       0.69623365      -2.42763517      -2.40145121
O        8.04580700      13.58661500       8.87279800      -1.58342609       1.03813404      -4.69564200
H        9.73498900      11.22379800       7.96474100       1.94670175       2.95364615       0.11851115
H        7.15119000      13.53583100       9.19102400      -0.12421736      -0.05722983       0.95625623
H        8.80682100      11.78106500      10.75670200      -1.17050015      -0.21256931       0.97302105
O        9.52107900       8.22387900       8.52346800      -0.38442335       4.04741969       1.21051439
H        8.99416700      10.58157400       8.41515200       0.10675458      -0.38568360       0.57753101
O        8.12526600      11.54966900      10.07964000       3.45863533      -2.22722723      -0.50450391
H        8.94272800      11.14081900       9.53817000      -2.78258812       0.95582078       1.58657245
10
Properties=species:S:1:pos:R:3:REF_forces:R:3 REF_energy=-6240.237388518429 charge=1 spin=1 external_field="_JSON [0.0, 0.0, 0.0]" config_type=ORCA_DFT source_file=r09_hot_w_h2formation_frame_014.out orca_step=0 pbc="F F F"
H       10.24705800       8.32239100       8.92757200       1.88428277      -0.64681355       0.20895753
H        9.00000000       9.00000000       9.00000000      -1.41972651      -0.03077976       0.97440467
O       10.18515200      11.85652200       8.79013300      -0.53468830      -4.15665312      -3.07251556
H        9.56520800      12.46394100       9.14878700      -1.42821644       1.85110551       0.56201213
H        9.56603300      11.28508900       8.08404900       2.56264561       2.55254477      -0.00418648
H        8.73943300      11.77717800      10.90335300      -1.55244362      -0.85910158      -0.81679192
O        9.35537100       8.18293300       8.65364900      -0.67677472       0.88863544      -0.80461497
H        8.91926200      10.54774800       8.61923500       0.90730293      -0.16027513       0.35509488
O        8.01359500      11.46668800      10.24901400       2.29104124      -0.32185776      -0.22266845
H        8.65628100      11.00489100       9.55510600      -2.03342291       0.88319519       2.82030811
13
Properties=species:S:1:pos:R:3:REF_forces:R:3 REF_energy=-8320.015881853473 charge=1 spin=1 external_field="_JSON [0.0, 0.0, 0.0]" config_type=ORCA_DFT source_file=r09_hot_w_h2formation_frame_015.out orca_step=0 pbc="F F F"
H       11.31116200       7.73767200       8.32680100       1.11672449       0.09312326      -0.93857331
H       10.13942800       8.12545100       9.13542800      -0.22423924       0.04444065       0.07951343
H        9.00000000       9.00000000       9.00000000      -1.37582332       1.55365775       1.00699752
O       10.07395600      11.80150500       8.96080800      -1.79801412      -2.73407963      -1.46771075
H        9.26333000      12.24872700       9.20885600      -0.26071363       2.17114797       1.54057613
H        9.50701800      11.39788000       8.24309600       1.86723671       0.43443517      -2.20138198
O       11.66136300       8.63701900       8.20305700      -0.00809877       0.45554166      -2.79235451
H       11.58031400       8.81282900       7.17385300       0.30289845      -0.78972648       3.15000111
H        8.62680200      11.73587900      10.99834600       0.94339140      -0.46377825       0.13780116
O        9.23665500       8.12184500       8.77731100      -0.07588005      -1.26260864      -0.24387188
H        8.89981900      10.43776300       8.83128800       2.41960942       0.28161352       0.30173137
O        7.97445700      11.35492400      10.40673500      -2.72093836       0.92977474       1.14062707
H        8.28928200      10.87241700       9.65453100      -0.18615303      -0.71354165       0.28664465
13
Properties=species:S:1:pos:R:3:REF_forces:R:3 REF_energy=-8319.197376423788 charge=1 spin=1 external_field="_JSON [0.0, 0.0, 0.0]" config_type=ORCA_DFT source_file=r09_hot_w_h2formation_frame_016.out orca_step=0 pbc="F F F"
H       11.27005200       7.61135900       8.57278100       2.11816735       1.57744570      -1.53657626
H       10.06315000       7.84613000       9.32698200      -1.60226826       0.64643889      -0.03387496
O        9.65323700       8.40433100       6.38998100      -0.94742521      -1.52280240       3.65320285
H        9.00000000       9.00000000       9.00000000       0.32307652      -2.42393036      -0.12147265
H        9.49912300       8.11065400       7.49061000       0.47580098       1.14763826      -3.72653895
O       11.66155600       8.52289100       8.35913300      -1.16655932      -0.83612106      -1.01093737
H       11.39737200       8.75828000       7.39061100       0.62489145      -1.03715800       2.03295132
H        9.24591100       7.58259600       6.04849900       0.25729278       0.52397775      -0.67638792
H        8.59041100      11.61527700      11.06484600       2.95080061       1.14187395       0.83014047
O        9.17289400       7.97208100       8.87716800      -0.20167066       1.57992203       1.61688756
H        8.91941000      10.20678600       9.01477000       0.51014609       0.70255919       0.48987165
O        7.99024200      11.15621100      10.53975600      -3.14333732      -1.69235659      -1.41139922
H        8.01196400      10.61627200       9.72633400      -0.19891501       0.19251265      -0.10586647
13
Properties=species:S:1:pos:R:3:REF_forces:R:3 REF_energy=-8318.236845561212 charge=1 spin=1 external_field="_JSON [0.0, 0.0, 0.0]" config_type=ORCA_DFT source_file=r09_hot_w_h2formation_frame_017.out orca_step=0 pbc="F F F"
H        6.24349500      10.11350400      10.45132300      -1.47636709       0.40152587       2.10341127
H        6.82426400       9.89404600       9.23716400      -2.33882654      -3.20718692       0.53702224
H        9.88065300       7.63080900       9.50436600       0.32021781       0.00154420       0.66310473
O        9.63054000       8.29021000       6.54395500      -1.31132401      -3.43345363       2.90282593
H        9.00000000       9.00000000       9.00000000       0.40302019      -3.85548847      -0.15007325
H        9.67254000       7.96906600       7.59641600       0.34402438       1.34186568      -3.66230764
H        9.13753900       7.41657900       6.30004000       1.06857200       2.21696889      -0.39147373
H        8.63786300      11.57290100      11.13904000      -0.12219626      -0.61665225      -1.41111367
O        9.10195200       7.85945000       8.97468000      -0.67940280       2.79439335       0.60460277
H        8.90010700       9.97042400       9.15796100       0.05453259       1.16716224       0.86303362
O        7.98767100      10.98811600      10.66487300       0.86275389      -0.00417830      -0.27314384
O        6.48229400       9.29152100      10.04647200       1.54345551       1.73079957      -4.02227610
H        7.84035900      10.40265900       9.82211000       1.33154033       1.46269982       2.23638766
16
Properties=species:S:1:pos:R:3:REF_forces:R:3 REF_energy=-10396.505441162335 charge=1 spin=1 external_field="_JSON [0.0, 0.0, 0.0]" config_type=ORCA_DFT source_file=r09_hot_w_h2formation_frame_018.out orca_step=0 pbc="F F F"
H       10.96359100       5.90486500      10.56255200       0.32289613      -0.10480188       0.36203521
H        6.07467800      10.01929300      10.68013800       0.89663249      -3.77435473      -1.35122496
H        6.76067300       9.69609200       9.40076200      -1.42986632      -0.91418501      -1.52642277
H        9.66410100       7.40135300       9.66691200       2.66906039       0.53527158       1.83803109
H       10.04465500      11.88258100      12.78907700       1.26275432       1.69500647       1.48959387
H        9.00000000       9.00000000       9.00000000       1.60536536      -8.91459969      -2.56728254
O        9.63598100      11.12129100      13.19304700      -1.11565250      -0.82548564      -5.71088417
H        9.58812100       5.95624600       9.94015500      -2.29317264      -1.30680920       0.94188587
H        8.64453900      11.45678400      11.10136900      -1.57209456      -0.86497429      -2.17035396
O       10.47566200       5.76266500       9.74619900       1.39825481       0.45586094      -0.84987364
O        9.02764500       7.69628500       9.04040900      -2.28800410       2.65693645      -2.56734553
H        8.88338700       9.61497700       9.21496200      -1.07450965       6.57220004       3.16889296
H        9.41944900      10.90682700      12.12545500       0.56382348      -1.18803837       4.95713370
O        7.97895800      10.77251000      10.75963400       1.68255220       1.73200701       1.99879143
O        6.45590500       9.14481400      10.13276000      -1.75584068       3.43697296       1.54257388
H        7.79531500      10.21930700       9.98985700       1.12780132       0.80899325       0.44444956
16
Properties=species:S:1:pos:R:3:REF_forces:R:3 REF_energy=-10397.980983174872 charge=1 spin=1 external_field="_JSON [0.0, 0.0, 0.0]" config_type=ORCA_DFT source_file=r09_hot_w_h2formation_frame_019.out orca_step=0 pbc="F F F"
H       11.02716000       5.66010700      10.60671500      -1.29711635       0.26860538      -0.60967381
H        5.91271800       9.85937500      10.90695300       1.44955069      -2.60859539      -2.01641239
H        6.62721200       9.57012100       9.55175000      -0.47995666       1.23627026      -3.15571652
H        9.42239500       7.31945200       9.94783700       1.23590635       1.38402005       0.52180933
H        9.00000000       9.00000000       9.00000000       1.18908100      -5.78086698      -1.73594430
O        9.66547200      11.35418200       9.48269600       5.01007946      -2.00195096      -4.50707769
H        8.82189200      11.46673000       9.78231400      -3.46385539       1.32875609      -0.63220207
H        9.78321500      11.38675000       8.46691000      -0.51908453       0.63306108       2.31838883
H        9.47122300       5.96951000      10.27263800      -0.52122456      -1.69126958       1.38395397
H        8.50006600      11.39935100      11.04452100       0.71800319       0.68601881       0.84449905
O       10.32062600       5.75051200       9.91173900       1.40507456       0.10236246      -0.11636953
O        8.90035100       7.62848200       9.18397000      -0.82739150       3.43513308      -1.83538511
H        8.79386700       9.60106000       9.40610500       0.16666956       2.63630479       2.42175310
O        7.92087000      10.67170200      10.94511800      -0.56316373       2.79308198       6.74269268
O        6.37024300       9.11759600      10.30075500      -2.86418672       0.00839146       4.00605974
H        7.79126900      10.16888100      10.23629700      -0.63838537      -2.42932253      -3.63037531
11
Properties=species:S:1:pos:R:3:REF_forces:R:3 REF_energy=-6236.539034753033 charge=2 spin=1 external_field="_JSON [0.0, 0.0, 0.0]" config_type=ORCA_DFT source_file=r09_hot_w_h2formation_frame_020.out orca_step=0 pbc="F F F"
O       11.23540500      12.48910300       7.95891300       3.02538060       1.97317486      -5.49314622
H        9.00000000       9.00000000       9.00000000       0.07275482      -0.06563960       0.05558453
O        9.54013100      11.27864400       9.61817800      -1.93798700      -1.93761326       4.51916517
H        8.54015300      11.41223200       9.87667100       2.11199135       0.52717286      -3.44797455
H        9.77545600      11.45765800       8.77911000       0.40990139       1.25169570      -5.47952267
H       10.96052400      12.33737100       8.77982900      -1.31255747      -1.00332953       5.74398718
H       10.79466500      12.23651900       7.13551600      -0.50292252      -0.24658681      -0.47987747
H        8.34123600      11.36826100      10.96027400      -0.15621535       1.02717106       3.04870961
H        8.75963600       9.61502300       9.53719000       1.24824348       0.15872012      -0.15016874
O        7.86995700      10.55771400      11.13723400      -1.40944194      -1.65325458       0.63545215
H        7.80227900      10.00792800      10.31636700      -1.54914742      -0.03151077       1.04779111
