12
Lattice="24.0 0.0 0.0 0.0 24.0 0.0 0.0 0.0 24.0" Properties=species:S:1:pos:R:3 selected_molecules=5,23,41,72 interaction_cutoff_A=1.7 source_xyz=C:\Users\shaoq\Documents\Mainz\mlip\outputsfull\r09_hot_w7n1\r09_hot_w7n1.xyz source_frame=506 source_time_ps=25.3 center_molecule=41 pbc="F F F"
H       12.09914551      10.10124720      12.77392889
O       11.36394789      10.42777168      13.34359714
H       11.49939543      10.37860405      14.37827293
H       11.73776589      14.45325832      11.12058096
H       10.40411703      14.88624286      10.73400647
O       10.90458075      14.06806165      11.13626487
H       11.89806056      12.83525455      11.12636438
O       11.66202288      11.80879790      11.39160427
H       11.35693659      11.78235388      12.36374414
H       13.46035357      11.57585825      12.94808077
O       14.08177391      11.59018032      12.07111288
H       13.34859595      11.65673454      11.46640638
