12
Lattice="24.0 0.0 0.0 0.0 24.0 0.0 0.0 0.0 24.0" Properties=species:S:1:pos:R:3 selected_molecules=10,22 interaction_cutoff_A=1.7 source_xyz=C:\Users\shaoq\Documents\Mainz\mlip\outputsfull\r09_hot_w7n1\r09_hot_w7n1.xyz source_frame=504 source_time_ps=25.2 center_molecule=22 pbc="F F F"
O       10.30589457      11.21476859      11.30886765
H       11.09001273      11.41343317      10.86710318
H       10.65033560      10.46267850      11.99706242
H       10.51100381      13.54994300      11.85889244
H       14.42955131      12.86694717      11.68106541
H       11.48640665      10.89470175      13.17737182
H       13.89073604      11.88621157      12.56298573
O       14.16363930      11.99252971      11.65795024
O       11.23733550      13.49225854      12.37701020
O       12.23783219      11.37956340      12.60894680
H       11.67126981      12.44989570      12.28845308
H       13.14838214      11.22039084      12.31662407
