12
Lattice="24.0 0.0 0.0 0.0 24.0 0.0 0.0 0.0 24.0" Properties=species:S:1:pos:R:3 selected_molecules=37,38 interaction_cutoff_A=1.7 source_xyz=C:\Users\shaoq\Documents\Mainz\mlip\outputsfull\r09_hot_w7n1\r09_hot_w7n1.xyz source_frame=506 source_time_ps=25.3 center_molecule=38 pbc="F F F"
H       10.76339862      10.89993172      12.75754685
H       12.01465393      11.13314079      11.91309630
H       12.98083848      13.44118110      11.86931683
H       13.73228602      12.34842865      11.58587146
O       11.29326957      10.62660835      11.99519820
H       13.96978313      11.04922023      11.00488481
O       13.25933544      11.56641481      11.15153945
O       13.67456209      13.80328708      11.19697284
H       13.05333741      14.31853379      10.75408026
O        9.76843851      11.87616772      13.61170421
H        9.04347870      12.52709812      13.50700506
H       10.51197164      12.30649856      13.31585746
