12
Lattice="24.0 0.0 0.0 0.0 24.0 0.0 0.0 0.0 24.0" Properties=species:S:1:pos:R:3 selected_molecules=45,66 interaction_cutoff_A=1.7 source_xyz=C:\Users\shaoq\Documents\Mainz\mlip\outputsfull\r09_hot_w7n1\r09_hot_w7n1.xyz source_frame=506 source_time_ps=25.3 center_molecule=66 pbc="F F F"
O       10.50922011      13.02985519      10.71961158
O       12.49253617      11.46548926      11.05152913
H       14.03242566      11.93613851      13.63824639
H        9.83012416      12.66572359      10.11189199
H       14.03578171      10.26335913      13.81717911
H       11.06310509      13.60587806      10.08728139
H       11.66064976      11.97673583      10.76511360
O       14.03088953      11.12527300      13.01648238
H       12.95855936      11.20107728      12.07238433
H       11.57198971      12.56074449      13.85544631
H       11.26877139      12.53551476      12.30785947
O       10.94080390      12.33243380      13.17108395
