12
Lattice="24.0 0.0 0.0 0.0 24.0 0.0 0.0 0.0 24.0" Properties=species:S:1:pos:R:3 selected_molecules=14,31,64 interaction_cutoff_A=1.7 source_xyz=C:\Users\shaoq\Documents\Mainz\mlip\outputsfull\r09_hot_w7n1\r09_hot_w7n1.xyz source_frame=506 source_time_ps=25.3 center_molecule=64 pbc="F F F"
H       11.07062113      10.55494417      11.65811884
O       11.53452353      10.47815931      12.53883467
H       11.35855604      11.36634036      12.70610964
O       10.87198956      13.97536030      12.79112555
H       11.01799277      14.30366345      13.60518806
H       11.72481784      13.70985984      12.43207353
H       12.89055915      12.91333608      13.01110149
O       12.72137314      12.83434397      12.00548001
H       13.19132687      11.88142124      11.98822008
O       12.84013096      10.75201826      10.58919951
H       12.72535446      10.66773513      11.47838455
H       12.52840375       9.96969409      10.31692371
