11
Lattice="24.0 0.0 0.0 0.0 24.0 0.0 0.0 0.0 24.0" Properties=species:S:1:pos:R:3 selected_molecules=27,42,60 interaction_cutoff_A=1.7 source_xyz=C:\Users\shaoq\Documents\Mainz\mlip\outputsfull\r09_hot_w7n1\r09_hot_w7n1.xyz source_frame=506 source_time_ps=25.3 center_molecule=27 pbc="F F F"
H       11.95553057      11.63852602      12.46865295
O       11.91933418      11.05612240      11.54578502
H       11.34565470      11.62348121      11.09332631
O       11.46915127      10.15103232       9.20161930
H       11.14063024      10.78642631       9.88468751
H       12.35574172       9.98923699       9.47350773
O       11.87527060      12.34792955      13.90631767
H       12.35599217      13.42686586      13.38195154
O       12.69777097      14.44685366      13.29617789
H       12.59369408      11.77094354      14.30196010
H       12.86340053      14.73376145      14.19110426
