11
Lattice="24.0 0.0 0.0 0.0 24.0 0.0 0.0 0.0 24.0" Properties=species:S:1:pos:R:3 selected_molecules=27,47,60 interaction_cutoff_A=1.7 source_xyz=C:\Users\shaoq\Documents\Mainz\mlip\outputsfull\r09_hot_w7n1\r09_hot_w7n1.xyz source_frame=506 source_time_ps=25.3 center_molecule=60 pbc="F F F"
H       12.20719829      10.82343056      11.69134024
O       12.17100190      10.24102694      10.76847231
H       11.59732242      10.80838575      10.31601361
O       10.75365713      12.50872558      11.53113579
H       10.28750955      13.28013968      11.11463108
H       11.32343577      12.96128090      12.16856381
O       12.12693832      11.53283409      13.12900496
H       12.60765989      12.61177040      12.60463883
O       12.94943869      13.63175820      12.51886518
H       12.84536180      10.95584808      13.52464739
H       13.11506826      13.91866599      13.41379155
