12
Lattice="24.0 0.0 0.0 0.0 24.0 0.0 0.0 0.0 24.0" Properties=species:S:1:pos:R:3 selected_molecules=34,50 interaction_cutoff_A=1.7 source_xyz=C:\Users\shaoq\Documents\Mainz\mlip\outputsfull\r09_hot_w7n1\r09_hot_w7n1.xyz source_frame=502 source_time_ps=25.1 center_molecule=34 pbc="F F F"
O       12.07765630      13.23713595       9.31638747
H       11.19702143      13.30439927       8.93444595
H       12.43450044      12.67383155       8.75152328
H       11.47354892      10.67227985      14.39159163
H       11.98437744      12.04295310      13.69499967
O       12.19073427      10.61042463      13.59086303
H       13.12848947      11.48117217      10.89205983
H       12.05355401      13.53154356      13.84173625
O       11.48162991      12.75678735      14.11621459
H       11.93113383      10.77114217      12.48365569
O       12.24154077      11.35462101      11.13384724
H       11.93131462      12.17392453      10.51312290
