12
Lattice="24.0 0.0 0.0 0.0 24.0 0.0 0.0 0.0 24.0" Properties=species:S:1:pos:R:3 selected_molecules=4,17,24 interaction_cutoff_A=1.7 source_xyz=C:\Users\shaoq\Documents\Mainz\mlip\outputsfull\r09_hot_w7n1\r09_hot_w7n1.xyz source_frame=500 source_time_ps=25.0 center_molecule=24 pbc="F F F"
H       10.52846805      12.77634286      10.93753349
H       10.77847165      13.07903463       9.25308081
O       10.06924989      13.02971104       9.83714361
O       11.50854698      12.68604369      11.60822243
H       10.05446003      13.89476603      10.09107758
H       11.56231427      12.26653856      12.40268675
H       14.32877027      10.71097121      12.90451927
H       13.83256636       9.55473169      12.11334681
O       13.53678068      10.33433182      12.52636114
H       12.63897671      11.57343824      13.21334337
H       13.50025031      12.67386976      13.86015661
O       12.80828813      11.91654069      14.10540573
