11
Lattice="24.0 0.0 0.0 0.0 24.0 0.0 0.0 0.0 24.0" Properties=species:S:1:pos:R:3 selected_molecules=36,47,60 interaction_cutoff_A=1.7 source_xyz=C:\Users\shaoq\Documents\Mainz\mlip\outputsfull\r09_hot_w7n1\r09_hot_w7n1.xyz source_frame=506 source_time_ps=25.3 center_molecule=47 pbc="F F F"
O       10.42663739      10.18495765      11.94609364
H       10.31517106       9.51511573      11.13237031
H       10.88481049      11.01924967      11.71516142
O       11.32935830      12.54649701      11.15992959
H       10.86321073      13.31791110      10.74342488
H       11.89913694      12.99905232      11.79735761
O       12.70263950      11.57060551      12.75779876
H       13.18336107      12.64954182      12.23343263
O       13.52513987      13.66952962      12.14765899
H       13.42106298      10.99361950      13.15344120
H       13.69076943      13.95643741      13.04258535
