12
Lattice="24.0 0.0 0.0 0.0 24.0 0.0 0.0 0.0 24.0" Properties=species:S:1:pos:R:3 selected_molecules=37,70 interaction_cutoff_A=1.7 source_xyz=C:\Users\shaoq\Documents\Mainz\mlip\outputsfull\r09_hot_w7n1\r09_hot_w7n1.xyz source_frame=506 source_time_ps=25.3 center_molecule=70 pbc="F F F"
H       10.21277785      10.72960785      13.81888083
H       11.46403316      10.96281692      12.97443028
H       12.43021772      13.27085723      12.93065081
H       13.18166525      12.17810478      12.64720544
O       10.74264880      10.45628448      13.05653217
H       13.41916236      10.87889636      12.06621879
O       12.70871467      11.39609094      12.21287343
O       13.12394132      13.63296321      12.25830682
H       12.50271664      14.14820992      11.81541424
O       11.40304165      12.40548744      10.36628313
H       12.21178433      12.25903807      10.89525114
H       10.92132831      13.30528006      10.53445365
