11
Lattice="24.0 0.0 0.0 0.0 24.0 0.0 0.0 0.0 24.0" Properties=species:S:1:pos:R:3 selected_molecules=0,81 interaction_cutoff_A=1.7 source_xyz=C:\Users\shaoq\Documents\Mainz\mlip\outputsfull\r09_hot_w7n1\r09_hot_w7n1.xyz source_frame=506 source_time_ps=25.3 center_molecule=81 pbc="F F F"
O       13.81687531      13.22251706      12.69811133
H       14.52085188      12.61378590      13.02628661
O       11.64213441      13.15409763      11.89699375
H       12.34614226      10.67753643      13.13832489
O       11.46228326      10.85695093      12.93065177
H       12.99225485      12.93037721      12.35837959
H       11.60969766      11.77346450      12.29261260
H       11.34068058      13.64980133      11.01150817
O       11.02250496      10.78598251      10.49074066
H       11.81282386      10.75256765      10.95985953
H       10.26958945      11.29219876      10.95117976
