14
Lattice="24.0 0.0 0.0 0.0 24.0 0.0 0.0 0.0 24.0" Properties=species:S:1:pos:R:3 selected_molecules=37,59 interaction_cutoff_A=1.7 source_xyz=C:\Users\shaoq\Documents\Mainz\mlip\outputsfull\r09_hot_w7n1\r09_hot_w7n1.xyz source_frame=506 source_time_ps=25.3 center_molecule=59 pbc="F F F"
H       10.45461609       9.97697347      12.75438711
H       11.70587141      10.21018254      11.90993656
H       12.67205596      12.51822285      11.86615709
H       13.42350349      11.42547040      11.58271172
O       10.98448705       9.70365010      11.99203846
H       13.66100061      10.12626198      11.00172507
O       12.95055291      10.64345656      11.14837971
O       13.36577957      12.88032883      11.19381310
H       12.74455489      13.39557554      10.75092052
H       11.50182377      13.36904401      12.67079076
H       12.80697480      13.72952381      14.01291332
O       10.61672748      12.94334914      12.15224109
O       11.97248107      13.89780729      13.49787440
H       10.77507611      12.16005291      11.69890634
