12
Lattice="24.0 0.0 0.0 0.0 24.0 0.0 0.0 0.0 24.0" Properties=species:S:1:pos:R:3 selected_molecules=6,41 interaction_cutoff_A=1.7 source_xyz=C:\Users\shaoq\Documents\Mainz\mlip\outputsfull\r09_hot_w7n1\r09_hot_w7n1.xyz source_frame=504 source_time_ps=25.2 center_molecule=41 pbc="F F F"
O       11.67339922      11.50108820      11.22203419
H       11.60565740      11.81419979      10.39205850
H       14.15830250      11.39604709      13.11565450
O        9.86713189      12.09456762      12.64025905
H       10.73954750      12.03746294      12.08644808
H       12.62025549      11.43058257      11.73558757
O       13.84227506      10.80750489      12.35887074
H       13.12541244      10.60205115      12.89183152
H        9.01171672      12.09407016      12.14985717
O       12.60775342      13.57558847      11.84878073
H       11.61811596      13.21359452      11.45478987
H       13.27083042      13.74928521      11.06360851
