12
Lattice="24.0 0.0 0.0 0.0 24.0 0.0 0.0 0.0 24.0" Properties=species:S:1:pos:R:3 selected_molecules=47,57,58 interaction_cutoff_A=1.7 source_xyz=C:\Users\shaoq\Documents\Mainz\mlip\outputsfull\r09_hot_w7n1\r09_hot_w7n1.xyz source_frame=500 source_time_ps=25.0 center_molecule=47 pbc="F F F"
H       13.89777951      10.00656048      13.60190426
O       13.46976988      10.29512522      12.86417300
H       12.80377103      11.31651925      12.85270975
H       11.37989324      13.16904956      13.63263904
H       12.84042576      12.32105775      14.21946359
O       11.85967343      12.32290282      13.77983070
H       10.38648840      14.03651112       9.67611040
O       11.45228043      11.79074884      11.39847844
H       11.92161861      12.03936701      12.09003966
H       11.68621634      13.12468386      10.63391405
O       11.25290906      13.48524122       9.80903287
H       10.53411467      11.66839822      11.64997681
