12
Lattice="24.0 0.0 0.0 0.0 24.0 0.0 0.0 0.0 24.0" Properties=species:S:1:pos:R:3 selected_molecules=43,45 interaction_cutoff_A=1.7 source_xyz=C:\Users\shaoq\Documents\Mainz\mlip\outputsfull\r09_hot_w7n1\r09_hot_w7n1.xyz source_frame=504 source_time_ps=25.2 center_molecule=43 pbc="F F F"
H       11.96980012      13.40679231      12.12472942
O       11.95817594      12.61650258      11.58773597
O       11.03607442      14.50516524      12.73173545
H       10.75000751      14.19642203      13.56274198
H       11.83353836      11.93403045      12.28152543
H       10.71444590      13.94148000      12.07285969
H       10.80363932       9.55285143      11.32126415
O       11.38298299      10.37281258      11.57762840
O       13.79221451      10.49880085      12.01716129
H       10.76352700      11.06815600      11.90662113
H       12.71580045      10.49002897      11.81589235
H       13.75976096      11.51687902      12.27521559
