14
Lattice="24.0 0.0 0.0 0.0 24.0 0.0 0.0 0.0 24.0" Properties=species:S:1:pos:R:3 selected_molecules=4,19 interaction_cutoff_A=1.7 source_xyz=C:\Users\shaoq\Documents\Mainz\mlip\outputsfull\r09_hot_w7n1\r09_hot_w7n1.xyz source_frame=502 source_time_ps=25.1 center_molecule=4 pbc="F F F"
H       14.08709775      12.52376563      11.16532802
O       13.82039679      11.65652461      11.41878941
H       13.82484284      12.04826853      12.28944515
H       10.60386447      10.01546572       9.73177305
O       11.55031092      13.12662333      12.40538725
O       10.15851139      11.13513357      12.49250567
H       12.67436475      13.46054647      13.22395010
H       11.87876990      12.83052670      11.44370564
O       10.80795468      10.85724227      10.16989704
H       10.41232326      10.96140278      11.17705057
O       13.72044393      13.22207862      13.48385777
H        9.21162192      11.40000398      12.50668680
H       10.62122143      12.14891213      12.65333307
H       13.77138398      12.64916297      14.27794986
