11
Lattice="24.0 0.0 0.0 0.0 24.0 0.0 0.0 0.0 24.0" Properties=species:S:1:pos:R:3 selected_molecules=10,34,66,72 interaction_cutoff_A=1.7 source_xyz=C:\Users\shaoq\Documents\Mainz\mlip\outputsfull\r09_hot_w7n1\r09_hot_w7n1.xyz source_frame=500 source_time_ps=25.0 center_molecule=72 pbc="F F F"
H       11.44113436      14.13484287      13.44110484
H       11.23364500      13.88005277      11.57328016
O       11.64947897      14.18462384      12.36297368
H       12.51640723      10.24059623      12.80123359
H       12.03191903       9.03511208      13.69928593
O       12.85203131       9.41133307      13.38123834
O       11.92723462      12.88759097       9.95846988
H       12.51594222      12.86183063      10.67904160
H       12.49033809      12.93438299       9.17393913
O       11.57091732      11.41993902      12.33503964
H       11.77597562      12.44504059      12.03339767
