12
Lattice="24.0 0.0 0.0 0.0 24.0 0.0 0.0 0.0 24.0" Properties=species:S:1:pos:R:3 selected_molecules=40,57,74 interaction_cutoff_A=1.7 source_xyz=C:\Users\shaoq\Documents\Mainz\mlip\outputsfull\r09_hot_w7n1\r09_hot_w7n1.xyz source_frame=502 source_time_ps=25.1 center_molecule=74 pbc="F F F"
H       10.77287534      11.97903039      11.29610091
H       13.33454949      10.40872195      11.57255499
O       12.53086616      10.15099319      11.22666790
O       10.46661115      11.13617186      11.00930514
H       11.25184237      10.67727358      11.60938502
H       12.56647632      10.09919493      10.29714274
H       13.11717273      12.62444888      13.08795191
O       13.63015947      13.34312493      13.51766088
H       13.55115338      14.15860945      13.89562156
O       11.25070602      13.31278562      12.20021662
H       11.48296622      14.19824925      12.22666588
H       11.85390993      12.75797682      12.74706233
