12
Lattice="24.0 0.0 0.0 0.0 24.0 0.0 0.0 0.0 24.0" Properties=species:S:1:pos:R:3 sample_kind=h2_formation source_xyz=/home/kevinsh/mlip/outputsfull/temperature_ramp/r09_hot_w/temperature_ramp_seed_525385756_from_pressure_equil_seed_353168294_P_15GPa_T_300K_density_0.2_P_15GPa_300K_to_2340K.xyz source_frame=25014 source_time_ps=137.5375 seed_atoms=101,232 seed_distance_A=0.9529437378400576 h2_present_current_frame=T environment_radius_A=3.5462855644124365 cluster_build_rule=nearest_complete_covalent_fragments max_atoms_rule=reject_not_truncate_fragments charge=0 spin=1 event_id=1 event_frame=25014 frames_before_event=0 h2_definition=mutual_nearest_neighbor_HH_not_O_N_S event_h2_distance_A=0.9529437378400576 cluster_id=1 pbc="F F F"
H       12.82312541      11.54167063      10.27592489
O        9.47462411      11.25196420      12.52721871
O       13.63972531      11.19079487       9.98181514
H       12.15483613      11.63511684      11.73559219
O       11.95356670      10.69025665      11.83607684
H       11.62809811       9.96890111      10.96398218
O       11.36843360      13.08604098      11.53920190
H       10.60426055      11.26273957      12.51246943
H        9.69348779      11.47253890      13.50554987
H       13.75906422      11.38297357       8.98319494
H       11.84516387      12.36488316      12.26440782
H       11.35983870      13.69849960      12.28527346
12
Lattice="24.0 0.0 0.0 0.0 24.0 0.0 0.0 0.0 24.0" Properties=species:S:1:pos:R:3 sample_kind=h2_formation source_xyz=/home/kevinsh/mlip/outputsfull/temperature_ramp/r09_hot_w/temperature_ramp_seed_525385756_from_pressure_equil_seed_353168294_P_15GPa_T_300K_density_0.2_P_15GPa_300K_to_2340K.xyz source_frame=25013 source_time_ps=137.535 seed_atoms=101,232 seed_distance_A=1.2185347683900192 h2_present_current_frame=F environment_radius_A=3.3086432797679817 cluster_build_rule=nearest_complete_covalent_fragments max_atoms_rule=reject_not_truncate_fragments charge=0 spin=1 event_id=1 event_frame=25014 frames_before_event=1 h2_definition=mutual_nearest_neighbor_HH_not_O_N_S event_h2_distance_A=0.9529437378400576 cluster_id=2 pbc="F F F"
H       12.84596011      11.53384381      10.29006148
O        9.62481105      11.33333848      12.67981200
O       13.78041680      11.29650657      10.16723200
H       12.13126164      11.55582826      11.60416090
O       12.03340751      10.75455874      11.97208043
H       11.74756484      10.28248829      11.12506869
O       11.46584103      13.16466001      11.72516726
H       10.60783243      11.07050161      12.44735115
H        9.87100573      11.77084276      13.62651562
H       13.68389897      11.48795154       9.19831997
H       11.86873836      12.44417174      12.39583910
H       11.39685231      13.62260846      12.62484998
12
Lattice="24.0 0.0 0.0 0.0 24.0 0.0 0.0 0.0 24.0" Properties=species:S:1:pos:R:3 sample_kind=h2_formation source_xyz=/home/kevinsh/mlip/outputsfull/temperature_ramp/r09_hot_w/temperature_ramp_seed_525385756_from_pressure_equil_seed_353168294_P_15GPa_T_300K_density_0.2_P_15GPa_300K_to_2340K.xyz source_frame=25012 source_time_ps=137.5325 seed_atoms=101,232 seed_distance_A=1.4624167366104168 h2_present_current_frame=F environment_radius_A=4.702380582708391 cluster_build_rule=nearest_complete_covalent_fragments max_atoms_rule=reject_not_truncate_fragments charge=0 spin=1 event_id=1 event_frame=25014 frames_before_event=2 h2_definition=mutual_nearest_neighbor_HH_not_O_N_S event_h2_distance_A=0.9529437378400576 cluster_id=3 pbc="F F F"
H       12.91718607      11.41119223      10.38759417
O       13.91666835      11.28543180      10.43086388
H       12.14891684      11.51358674      11.47474616
H       13.49032971      10.71265414       7.72986638
O       12.10826742      10.68577952      12.18368841
H       11.85599562      10.40828316      11.39141075
O       13.02847555      11.33960384       8.28844002
O       11.56168083      13.12087845      11.99643067
H       13.63361630      11.43831288       9.47021327
H       11.85108316      12.48641326      12.52525384
H       13.02206751      12.19514147       7.80487068
H       11.39720271      13.43679899      12.90998443
12
Lattice="24.0 0.0 0.0 0.0 24.0 0.0 0.0 0.0 24.0" Properties=species:S:1:pos:R:3 sample_kind=h2_formation source_xyz=/home/kevinsh/mlip/outputsfull/temperature_ramp/r09_hot_w/temperature_ramp_seed_525385756_from_pressure_equil_seed_353168294_P_15GPa_T_300K_density_0.2_P_15GPa_300K_to_2340K.xyz source_frame=25011 source_time_ps=137.53 seed_atoms=101,232 seed_distance_A=1.4717882949113852 h2_present_current_frame=F environment_radius_A=4.561331280948673 cluster_build_rule=nearest_complete_covalent_fragments max_atoms_rule=reject_not_truncate_fragments charge=0 spin=1 event_id=1 event_frame=25014 frames_before_event=3 h2_definition=mutual_nearest_neighbor_HH_not_O_N_S event_h2_distance_A=0.9529437378400576 cluster_id=4 pbc="F F F"
H       13.00930484      11.42400561      10.43304297
O       13.96373636      11.42021309      10.56488404
H       12.11010137      11.59122882      11.39806645
H       13.44788635      10.71411974       7.87012348
O       12.10698225      10.77380074      12.26676708
H       11.79159046      10.40413887      11.34781581
O       13.04738953      11.46289629       8.41618048
O       11.56883551      13.23256991      12.13200024
H       13.63626990      11.51750221       9.52770024
H       11.88989863      12.40877118      12.60193356
H       12.99662662      12.27084881       7.81680693
H       11.29030575      13.48012885      13.00627030
15
Lattice="24.0 0.0 0.0 0.0 24.0 0.0 0.0 0.0 24.0" Properties=species:S:1:pos:R:3 sample_kind=h2_formation source_xyz=/home/kevinsh/mlip/outputsfull/temperature_ramp/r09_hot_w/temperature_ramp_seed_525385756_from_pressure_equil_seed_353168294_P_15GPa_T_300K_density_0.2_P_15GPa_300K_to_2340K.xyz source_frame=25010 source_time_ps=137.5275 seed_atoms=101,232 seed_distance_A=1.3026270040687196 h2_present_current_frame=F environment_radius_A=4.410155808587829 cluster_build_rule=nearest_complete_covalent_fragments max_atoms_rule=reject_not_truncate_fragments charge=0 spin=1 event_id=1 event_frame=25014 frames_before_event=4 h2_definition=mutual_nearest_neighbor_HH_not_O_N_S event_h2_distance_A=0.9529437378400576 cluster_id=5 pbc="F F F"
H       13.06519225      11.50465719      10.48674547
O       11.70389458       9.26418813      10.54190799
O       13.98014727      11.62238628      10.59679920
H       12.06136524      11.63670694      11.46291366
H       13.33924680      10.86041782       7.95559093
O       12.07633085      10.93840384      12.23281068
H       11.70691253      10.35213317      11.32354767
O       13.03736840      11.65007482       8.43903376
O       11.54544050      13.40987709      12.16886310
H       13.75347883      11.68155485       9.43749557
H       11.20823548       8.45735597      10.54101034
H       11.93863476      12.36329306      12.53708634
H       12.98271466      12.34458257       7.75889533
H       12.61709751       8.94144059      10.23548643
H       11.13520311      13.66334009      12.98596132
15
Lattice="24.0 0.0 0.0 0.0 24.0 0.0 0.0 0.0 24.0" Properties=species:S:1:pos:R:3 sample_kind=h2_formation source_xyz=/home/kevinsh/mlip/outputsfull/temperature_ramp/r09_hot_w/temperature_ramp_seed_525385756_from_pressure_equil_seed_353168294_P_15GPa_T_300K_density_0.2_P_15GPa_300K_to_2340K.xyz source_frame=25009 source_time_ps=137.525 seed_atoms=101,232 seed_distance_A=1.1913386159369623 h2_present_current_frame=F environment_radius_A=4.4366751272311475 cluster_build_rule=nearest_complete_covalent_fragments max_atoms_rule=reject_not_truncate_fragments charge=0 spin=1 event_id=1 event_frame=25014 frames_before_event=5 h2_definition=mutual_nearest_neighbor_HH_not_O_N_S event_h2_distance_A=0.9529437378400576 cluster_id=6 pbc="F F F"
H       13.09274433      11.47185881      10.59555409
O       11.73317077       9.31910842      10.55828847
O       14.03549291      11.71240017      10.61649507
H       12.05956764      11.57416679      11.58776257
H       13.26031535      10.91236737       8.02607168
O       12.07839546      10.98937585      12.18253156
H       11.70922253      10.15682313      11.47236308
O       13.06176736      11.72126578       8.45670954
O       11.56082391      13.46261934      12.20421103
H       13.97796255      11.77281530       9.42164967
H       11.05018841       8.50579497      10.47104370
H       11.94043236      12.42583321      12.41223743
H       13.02314107      12.31071873       7.69410608
H       12.62320860       9.03893731      10.25356880
H       11.02544931      13.76404657      12.94429415
12
Lattice="24.0 0.0 0.0 0.0 24.0 0.0 0.0 0.0 24.0" Properties=species:S:1:pos:R:3 sample_kind=h2_formation source_xyz=/home/kevinsh/mlip/outputsfull/temperature_ramp/r09_hot_w/temperature_ramp_seed_525385756_from_pressure_equil_seed_353168294_P_15GPa_T_300K_density_0.2_P_15GPa_300K_to_2340K.xyz source_frame=25008 source_time_ps=137.5225 seed_atoms=101,232 seed_distance_A=1.3254762019221031 h2_present_current_frame=F environment_radius_A=4.014854844007753 cluster_build_rule=nearest_complete_covalent_fragments max_atoms_rule=reject_not_truncate_fragments charge=0 spin=1 event_id=1 event_frame=25014 frames_before_event=6 h2_definition=mutual_nearest_neighbor_HH_not_O_N_S event_h2_distance_A=0.9529437378400576 cluster_id=7 pbc="F F F"
H       13.23862957      11.21825872      10.84619754
O       11.81243870       9.13297606      10.70307903
O       14.13905073      11.56860248      10.75086503
H       12.09066664      11.52507497      11.54673676
O       12.12889117      10.78513539      12.27298187
H       11.82866294       9.78629984      11.84995416
O       11.62837662      13.27627270      12.36587004
H       14.22800589      11.65687378       9.74317879
H       11.03412466       8.39075412      10.53048021
H       11.90933336      12.47492503      12.45326324
H       12.66950812       8.90962169      10.41230914
H       11.01300827      13.62068948      13.01572871
11
Lattice="24.0 0.0 0.0 0.0 24.0 0.0 0.0 0.0 24.0" Properties=species:S:1:pos:R:3 sample_kind=h2_formation source_xyz=/home/kevinsh/mlip/outputsfull/temperature_ramp/r09_hot_w/temperature_ramp_seed_525385756_from_pressure_equil_seed_353168294_P_15GPa_T_300K_density_0.2_P_15GPa_300K_to_2340K.xyz source_frame=25007 source_time_ps=137.52 seed_atoms=101,232 seed_distance_A=1.3882533425861665 h2_present_current_frame=F environment_radius_A=3.232855944259231 cluster_build_rule=nearest_complete_covalent_fragments max_atoms_rule=reject_not_truncate_fragments charge=0 spin=1 event_id=1 event_frame=25014 frames_before_event=7 h2_definition=mutual_nearest_neighbor_HH_not_O_N_S event_h2_distance_A=0.9529437378400576 cluster_id=8 pbc="F F F"
H        9.97063038      14.44403251      12.29127816
H       12.05548897      11.56970348      11.45817188
O       12.15332815      10.78997241      12.27847519
H       11.96973769       9.80164131      12.15044698
O       11.66233336      13.33025420      12.43480866
H        9.55520386      12.92988620      11.50774124
H       11.94451103      12.43029652      12.54182813
O       10.16268169      12.53869921      10.41027465
O        9.30219917      13.77455093      12.15555463
H       11.13319453      12.43556204      10.44993736
H       11.01135740      13.63860813      13.02201972
11
Lattice="24.0 0.0 0.0 0.0 24.0 0.0 0.0 0.0 24.0" Properties=species:S:1:pos:R:3 sample_kind=h2_formation source_xyz=/home/kevinsh/mlip/outputsfull/temperature_ramp/r09_hot_w/temperature_ramp_seed_525385756_from_pressure_equil_seed_353168294_P_15GPa_T_300K_density_0.2_P_15GPa_300K_to_2340K.xyz source_frame=25006 source_time_ps=137.5175 seed_atoms=101,232 seed_distance_A=1.5223259365244357 h2_present_current_frame=F environment_radius_A=3.280767797893847 cluster_build_rule=nearest_complete_covalent_fragments max_atoms_rule=reject_not_truncate_fragments charge=0 spin=1 event_id=1 event_frame=25014 frames_before_event=8 h2_definition=mutual_nearest_neighbor_HH_not_O_N_S event_h2_distance_A=0.9529437378400576 cluster_id=9 pbc="F F F"
H        9.98048284      14.56645420      12.31352926
H       11.99601083      11.53779976      11.39524874
O       12.18972427      10.95756057      12.16912987
H       12.09791000      10.06590557      12.26980658
O       11.70688810      13.54616709      12.38126714
H        9.54462240      13.11313462      11.12271997
H       12.00398917      12.46220024      12.60475126
O       10.22639797      12.67512327      10.35303042
O        9.37719219      13.95336705      12.11864264
H       11.32657793      12.57696881      10.39190976
H       10.99745606      13.76840988      12.98069416
12
Lattice="24.0 0.0 0.0 0.0 24.0 0.0 0.0 0.0 24.0" Properties=species:S:1:pos:R:3 sample_kind=h2_formation source_xyz=/home/kevinsh/mlip/outputsfull/temperature_ramp/r09_hot_w/temperature_ramp_seed_525385756_from_pressure_equil_seed_353168294_P_15GPa_T_300K_density_0.2_P_15GPa_300K_to_2340K.xyz source_frame=25005 source_time_ps=137.515 seed_atoms=101,232 seed_distance_A=1.9359821936660968 h2_present_current_frame=F environment_radius_A=2.80971930811239 cluster_build_rule=nearest_complete_covalent_fragments max_atoms_rule=reject_not_truncate_fragments charge=0 spin=1 event_id=1 event_frame=25014 frames_before_event=9 h2_definition=mutual_nearest_neighbor_HH_not_O_N_S event_h2_distance_A=0.9529437378400576 cluster_id=10 pbc="F F F"
O       10.20385104      11.74943338      13.08789600
H       11.94278847      11.29857862      11.33536351
O       12.30376505      11.03681858      12.10277353
H       12.21473602      10.09880184      12.32892223
O       11.82796434      13.63977728      12.35900371
H       10.65839525      10.97405845      13.37190574
H       11.03267081      11.95651220      13.65125856
H        9.76330168      13.26630247      10.86501927
H       12.05721153      12.70142138      12.66463648
O       10.36531905      12.69296338      10.32154132
H       11.33771462      12.68847179      10.37783836
H       11.06858248      13.75842221      12.97734086
12
Lattice="24.0 0.0 0.0 0.0 24.0 0.0 0.0 0.0 24.0" Properties=species:S:1:pos:R:3 sample_kind=h2_formation source_xyz=/home/kevinsh/mlip/outputsfull/temperature_ramp/r09_hot_w/temperature_ramp_seed_525385756_from_pressure_equil_seed_353168294_P_15GPa_T_300K_density_0.2_P_15GPa_300K_to_2340K.xyz source_frame=25283 source_time_ps=138.21 seed_atoms=22,214 seed_distance_A=0.9728138357484659 h2_present_current_frame=T environment_radius_A=3.079049141200501 cluster_build_rule=nearest_complete_covalent_fragments max_atoms_rule=reject_not_truncate_fragments charge=0 spin=1 event_id=2 event_frame=25283 frames_before_event=0 h2_definition=mutual_nearest_neighbor_HH_not_O_N_S event_h2_distance_A=0.9728138357484659 cluster_id=11 pbc="F F F"
H       12.32838408      11.76961525      12.27509717
H       13.32550749      14.22270542      12.49401582
O       12.36394197      11.72932004      10.81974455
H       13.73130771      13.01612786      12.02444616
H       11.84379853      12.88928034      13.62629709
O       11.45119229       9.81941450      11.48349775
O       13.47952960      13.82235698      11.60468500
H       11.80839850       8.95936128      11.55463649
O       11.69401152      12.04560214      13.05962358
H       12.26533496      12.26593113       9.96896575
H       11.94203185      10.65259685      11.02270119
H       11.67161592      12.23038475      11.72490283
12
Lattice="24.0 0.0 0.0 0.0 24.0 0.0 0.0 0.0 24.0" Properties=species:S:1:pos:R:3 sample_kind=h2_formation source_xyz=/home/kevinsh/mlip/outputsfull/temperature_ramp/r09_hot_w/temperature_ramp_seed_525385756_from_pressure_equil_seed_353168294_P_15GPa_T_300K_density_0.2_P_15GPa_300K_to_2340K.xyz source_frame=25282 source_time_ps=138.2075 seed_atoms=22,214 seed_distance_A=1.1521901818214177 h2_present_current_frame=F environment_radius_A=3.1834074095326685 cluster_build_rule=nearest_complete_covalent_fragments max_atoms_rule=reject_not_truncate_fragments charge=0 spin=1 event_id=2 event_frame=25283 frames_before_event=1 h2_definition=mutual_nearest_neighbor_HH_not_O_N_S event_h2_distance_A=0.9728138357484659 cluster_id=12 pbc="F F F"
H       12.37012866      11.78450692      12.38529607
H       13.24578314      14.21851247      12.38312574
O       12.47210662      11.61875718      10.90444490
H       13.71408242      12.65182154      12.10761745
H       11.88030002      12.84287428      13.49252236
O       11.50981771       9.73366496      11.60666925
O       13.59464433      13.68629284      11.64407025
H       11.81528504       8.85464655      11.54534101
O       11.78809262      11.95364602      13.16094103
H       12.40973230      12.04751633      10.06619148
H       11.92338885      10.53780836      11.08584987
H       11.62987134      12.21549308      11.61470393
16
Lattice="24.0 0.0 0.0 0.0 24.0 0.0 0.0 0.0 24.0" Properties=species:S:1:pos:R:3 sample_kind=h2_formation source_xyz=/home/kevinsh/mlip/outputsfull/temperature_ramp/r09_hot_w/temperature_ramp_seed_525385756_from_pressure_equil_seed_353168294_P_15GPa_T_300K_density_0.2_P_15GPa_300K_to_2340K.xyz source_frame=25281 source_time_ps=138.205 seed_atoms=22,214 seed_distance_A=1.5186162834976724 h2_present_current_frame=F environment_radius_A=3.952818046168947 cluster_build_rule=nearest_complete_covalent_fragments max_atoms_rule=reject_not_truncate_fragments charge=0 spin=1 event_id=2 event_frame=25283 frames_before_event=2 h2_definition=mutual_nearest_neighbor_HH_not_O_N_S event_h2_distance_A=0.9728138357484659 cluster_id=13 pbc="F F F"
H       12.41416708      11.80722235      12.60650743
H       13.03503518      10.08443220      14.13174926
H       13.13116770      14.22568980      12.25980830
O       12.50598497      11.54618933      10.97482134
H       13.64264224      12.57988040      12.06996337
H       11.46402491       9.63020643      12.96130817
H       11.83986785      12.86869469      13.32157960
O       11.49290472       9.67918942      11.72439672
O       13.63512324      13.56377144      11.68664797
H       11.85793013       8.75331801      11.48378949
O       11.80974140      11.89376024      13.24836371
H       12.46261223      11.90433970      10.09752341
H       11.89535713       9.00383675      14.57620383
H       11.83267168      10.37297866      11.13203608
H       11.58583292      12.19277765      11.39349257
O       12.12078246       9.77468849      14.09268033
13
Lattice="24.0 0.0 0.0 0.0 24.0 0.0 0.0 0.0 24.0" Properties=species:S:1:pos:R:3 sample_kind=h2_formation source_xyz=/home/kevinsh/mlip/outputsfull/temperature_ramp/r09_hot_w/temperature_ramp_seed_525385756_from_pressure_equil_seed_353168294_P_15GPa_T_300K_density_0.2_P_15GPa_300K_to_2340K.xyz source_frame=25280 source_time_ps=138.2025 seed_atoms=22,214 seed_distance_A=1.8963458531334312 h2_present_current_frame=F environment_radius_A=3.1746927800800813 cluster_build_rule=nearest_complete_covalent_fragments max_atoms_rule=reject_not_truncate_fragments charge=0 spin=1 event_id=2 event_frame=25283 frames_before_event=3 h2_definition=mutual_nearest_neighbor_HH_not_O_N_S event_h2_distance_A=0.9728138357484659 cluster_id=14 pbc="F F F"
H       12.45461213      11.83916561      12.81638962
H       12.92675520      14.22358800      12.21091596
O       12.37614025      11.57645082      11.10959895
H       13.44873770      12.75467671      12.07168535
H       11.43634856       9.64330119      12.92607243
H       11.60540294      12.97950635      13.25422686
O       11.32100567       9.70561728      11.91473289
O       13.51472984      13.53507831      11.80796919
H       11.77701184       8.87073297      11.51354509
O       11.66901500      11.93867965      13.41229445
H       12.34516015      11.90815489      10.14186082
H       11.61684435      10.35243452      11.24499274
H       11.54538787      12.16083439      11.18361038
16
Lattice="24.0 0.0 0.0 0.0 24.0 0.0 0.0 0.0 24.0" Properties=species:S:1:pos:R:3 sample_kind=h2_formation source_xyz=/home/kevinsh/mlip/outputsfull/temperature_ramp/r09_hot_w/temperature_ramp_seed_525385756_from_pressure_equil_seed_353168294_P_15GPa_T_300K_density_0.2_P_15GPa_300K_to_2340K.xyz source_frame=25279 source_time_ps=138.2 seed_atoms=22,214 seed_distance_A=2.292617933658307 h2_present_current_frame=F environment_radius_A=4.139085038009695 cluster_build_rule=nearest_complete_covalent_fragments max_atoms_rule=reject_not_truncate_fragments charge=0 spin=1 event_id=2 event_frame=25283 frames_before_event=4 h2_definition=mutual_nearest_neighbor_HH_not_O_N_S event_h2_distance_A=0.9728138357484659 cluster_id=15 pbc="F F F"
H       12.46557527      11.84712067      13.03628752
H       12.73609901      10.10946500      14.47837300
H       12.77316436      14.17034350      12.13941929
O       12.25868839      11.64556563      11.15428124
H       13.26170306      12.61655814      12.15354723
H       11.50563671       9.74536217      12.98349677
H       11.36430428      12.97281371      13.18594423
O       11.16759486       9.75292965      12.02072424
O       13.41082095      13.56996275      11.85302601
H       11.70466814       9.09244955      11.55413068
O       11.54915595      12.03232514      13.49907769
H       12.28709360      11.91763453      10.16956271
H       11.55492596       9.11208829      14.93153544
H       11.44373797      10.46262704      11.32281985
H       11.53442473      12.15287933      10.96371248
O       11.79121386       9.76704398      14.19167766
16
Lattice="24.0 0.0 0.0 0.0 24.0 0.0 0.0 0.0 24.0" Properties=species:S:1:pos:R:3 sample_kind=h2_formation source_xyz=/home/kevinsh/mlip/outputsfull/temperature_ramp/r09_hot_w/temperature_ramp_seed_525385756_from_pressure_equil_seed_353168294_P_15GPa_T_300K_density_0.2_P_15GPa_300K_to_2340K.xyz source_frame=25278 source_time_ps=138.1975 seed_atoms=22,214 seed_distance_A=2.748276816045969 h2_present_current_frame=F environment_radius_A=3.994453377331636 cluster_build_rule=nearest_complete_covalent_fragments max_atoms_rule=reject_not_truncate_fragments charge=0 spin=1 event_id=2 event_frame=25283 frames_before_event=5 h2_definition=mutual_nearest_neighbor_HH_not_O_N_S event_h2_distance_A=0.9728138357484659 cluster_id=16 pbc="F F F"
H       12.50648085      11.78842620      13.25974999
H       12.67360813      10.08932717      14.60983235
H       12.72816214      14.07386142      12.04104723
O       12.32805144      11.64172680      11.05950755
H       13.29385056      12.50125893      12.10208540
H       11.78827171       9.79411557      13.07146110
H       11.32641950      12.82533213      13.04764486
O       11.19821650       9.73121691      11.98770396
O       13.49519730      13.53264333      11.77942942
H       11.84584926       9.21709437      11.53228501
O       11.62152064      12.06177072      13.45771485
H       12.50732467      11.81986629      10.12818114
H       11.66703576       9.15340299      14.78238711
H       11.44655417      10.54389034      11.36740854
H       11.49351915      12.21157380      10.74025001
O       11.82223151       9.70072860      14.08852588
12
Lattice="24.0 0.0 0.0 0.0 24.0 0.0 0.0 0.0 24.0" Properties=species:S:1:pos:R:3 sample_kind=h2_formation source_xyz=/home/kevinsh/mlip/outputsfull/temperature_ramp/r09_hot_w/temperature_ramp_seed_525385756_from_pressure_equil_seed_353168294_P_15GPa_T_300K_density_0.2_P_15GPa_300K_to_2340K.xyz source_frame=25277 source_time_ps=138.195 seed_atoms=22,214 seed_distance_A=3.0964696095867037 h2_present_current_frame=F environment_radius_A=2.7483697721575857 cluster_build_rule=nearest_complete_covalent_fragments max_atoms_rule=reject_not_truncate_fragments charge=0 spin=1 event_id=2 event_frame=25283 frames_before_event=6 h2_definition=mutual_nearest_neighbor_HH_not_O_N_S event_h2_distance_A=0.9728138357484659 cluster_id=17 pbc="F F F"
H       12.54751148      11.74504117      13.42557293
H       12.67577826      13.95278752      11.90880962
O       12.36713767      11.64436953      10.89076316
H       13.36919484      12.64466835      11.91210067
H       11.30061112      12.78684032      12.80004500
O       11.21301812       9.72007938      11.88048329
O       13.55852548      13.48864820      11.65462261
H       12.02870077       9.30232232      11.47535936
O       11.67389071      12.08604091      13.36023884
H       12.78295890      11.72312816      10.03929313
H       11.39274486      10.59138851      11.42766574
H       11.45248852      12.25495883      10.57442707
12
Lattice="24.0 0.0 0.0 0.0 24.0 0.0 0.0 0.0 24.0" Properties=species:S:1:pos:R:3 sample_kind=h2_formation source_xyz=/home/kevinsh/mlip/outputsfull/temperature_ramp/r09_hot_w/temperature_ramp_seed_525385756_from_pressure_equil_seed_353168294_P_15GPa_T_300K_density_0.2_P_15GPa_300K_to_2340K.xyz source_frame=25276 source_time_ps=138.1925 seed_atoms=22,214 seed_distance_A=3.2731408048418418 h2_present_current_frame=F environment_radius_A=2.604723569151715 cluster_build_rule=nearest_complete_covalent_fragments max_atoms_rule=reject_not_truncate_fragments charge=0 spin=1 event_id=2 event_frame=25283 frames_before_event=7 h2_definition=mutual_nearest_neighbor_HH_not_O_N_S event_h2_distance_A=0.9728138357484659 cluster_id=18 pbc="F F F"
H       12.53188393      11.77071781      13.53065079
H       12.61905629      13.82785425      11.74834916
O       12.27395656      11.69289074      10.71598441
H       13.31421512      12.64000319      11.78190525
H       11.27243866      12.79217543      12.55588742
O       11.11892135       9.74978301      11.76207877
O       13.50149466      13.50198649      11.53701188
H       12.06488985       9.45028192      11.47150034
O       11.60227797      12.14464264      13.27003025
H       12.93985665      11.68763760       9.97982277
H       11.20066662      10.64765271      11.50300101
H       11.46811607      12.22928219      10.46934921
12
Lattice="24.0 0.0 0.0 0.0 24.0 0.0 0.0 0.0 24.0" Properties=species:S:1:pos:R:3 sample_kind=h2_formation source_xyz=/home/kevinsh/mlip/outputsfull/temperature_ramp/r09_hot_w/temperature_ramp_seed_525385756_from_pressure_equil_seed_353168294_P_15GPa_T_300K_density_0.2_P_15GPa_300K_to_2340K.xyz source_frame=25275 source_time_ps=138.19 seed_atoms=22,214 seed_distance_A=3.3711080594736855 h2_present_current_frame=F environment_radius_A=2.4641321263766134 cluster_build_rule=nearest_complete_covalent_fragments max_atoms_rule=reject_not_truncate_fragments charge=0 spin=1 event_id=2 event_frame=25283 frames_before_event=8 h2_definition=mutual_nearest_neighbor_HH_not_O_N_S event_h2_distance_A=0.9728138357484659 cluster_id=19 pbc="F F F"
H       12.46396091      11.82527279      13.61099443
H       12.59379490      13.71944202      11.66309431
O       12.21312340      11.70112425      10.62407484
H       13.30397356      12.41979771      11.78545815
H       11.40882256      12.69609424      12.47010345
O       11.06496465       9.73763279      11.71830753
O       13.47841514      13.48937948      11.50931537
H       12.03258998       9.58326081      11.55798575
O       11.56337495      12.16034758      13.26916369
H       13.04411104      11.66354201      10.10339338
H       11.04314869      10.71021227      11.63039257
H       11.53603909      12.17472721      10.38900557
12
Lattice="24.0 0.0 0.0 0.0 24.0 0.0 0.0 0.0 24.0" Properties=species:S:1:pos:R:3 sample_kind=h2_formation source_xyz=/home/kevinsh/mlip/outputsfull/temperature_ramp/r09_hot_w/temperature_ramp_seed_525385756_from_pressure_equil_seed_353168294_P_15GPa_T_300K_density_0.2_P_15GPa_300K_to_2340K.xyz source_frame=25274 source_time_ps=138.1875 seed_atoms=22,214 seed_distance_A=3.5897715210998853 h2_present_current_frame=F environment_radius_A=2.526528740920085 cluster_build_rule=nearest_complete_covalent_fragments max_atoms_rule=reject_not_truncate_fragments charge=0 spin=1 event_id=2 event_frame=25283 frames_before_event=9 h2_definition=mutual_nearest_neighbor_HH_not_O_N_S event_h2_distance_A=0.9728138357484659 cluster_id=20 pbc="F F F"
H       12.47637162      11.79898993      13.71880189
H       12.62374859      13.59359718      11.72045876
O       12.29951853      11.59547882      10.67816353
H       13.50405912      12.33518346      11.87292484
H       11.75127055      12.47978423      12.55285411
O       11.14599315       9.63017872      11.80514911
O       13.59048372      13.36270938      11.63011586
H       12.08339731       9.61389726      11.72230198
O       11.65873679      12.06877912      13.41270302
H       13.21361966      11.59820949      10.41367700
H       11.01865808      10.62045475      11.88537569
H       11.52362838      12.20101007      10.28119811
12
Lattice="24.0 0.0 0.0 0.0 24.0 0.0 0.0 0.0 24.0" Properties=species:S:1:pos:R:3 sample_kind=h2_formation source_xyz=/home/kevinsh/mlip/outputsfull/temperature_ramp/r09_hot_w/temperature_ramp_seed_525385756_from_pressure_equil_seed_353168294_P_15GPa_T_300K_density_0.2_P_15GPa_300K_to_2340K.xyz source_frame=25387 source_time_ps=138.47 seed_atoms=160,245 seed_distance_A=0.9636382531515638 h2_present_current_frame=T environment_radius_A=3.0375694595810407 cluster_build_rule=nearest_complete_covalent_fragments max_atoms_rule=reject_not_truncate_fragments charge=0 spin=1 event_id=3 event_frame=25387 frames_before_event=0 h2_definition=mutual_nearest_neighbor_HH_not_O_N_S event_h2_distance_A=0.9636382531515638 cluster_id=21 pbc="F F F"
O       11.94090485      11.61889559      10.55924052
H       12.98607540      11.98609725      13.50775932
H       14.41722178      12.86301680      13.62452119
H       10.37124053      12.32243625      12.97083572
H       12.61776960      10.06947686      10.93799050
H       12.09789907      12.09900679      11.53873749
O       13.94066995      11.89913435      13.57043110
O       11.31629508      12.54542446      13.17118398
H       11.35057515      10.92193993      10.62944731
O       12.78408576       9.31110633      11.57405057
H       11.90210093      11.90099321      12.46126251
H       13.35240630       9.37345389      12.31555517
12
Lattice="24.0 0.0 0.0 0.0 24.0 0.0 0.0 0.0 24.0" Properties=species:S:1:pos:R:3 sample_kind=h2_formation source_xyz=/home/kevinsh/mlip/outputsfull/temperature_ramp/r09_hot_w/temperature_ramp_seed_525385756_from_pressure_equil_seed_353168294_P_15GPa_T_300K_density_0.2_P_15GPa_300K_to_2340K.xyz source_frame=25386 source_time_ps=138.4675 seed_atoms=160,245 seed_distance_A=1.4234229314911158 h2_present_current_frame=F environment_radius_A=2.985550226123531 cluster_build_rule=nearest_complete_covalent_fragments max_atoms_rule=reject_not_truncate_fragments charge=0 spin=1 event_id=3 event_frame=25387 frames_before_event=1 h2_definition=mutual_nearest_neighbor_HH_not_O_N_S event_h2_distance_A=0.9636382531515638 cluster_id=22 pbc="F F F"
H       12.80410039      14.28435339      12.84121764
H       12.43283943      14.00817405      11.50798157
O       12.00290308      11.61911918      10.70098027
O       12.63957967      14.88011823      12.13702620
H       12.99084753      11.97044760      13.59284347
H       14.32991268      12.89751127      13.63691495
H       10.51045386      12.24867792      12.97560430
H       12.16272779      12.03968537      11.30827899
O       13.98617047      11.92635827      13.64747654
O       11.32309264      12.54520025      13.27806065
H       11.36856071      10.90003179      10.69962736
H       11.83727221      11.96031463      12.69172100
12
Lattice="24.0 0.0 0.0 0.0 24.0 0.0 0.0 0.0 24.0" Properties=species:S:1:pos:R:3 sample_kind=h2_formation source_xyz=/home/kevinsh/mlip/outputsfull/temperature_ramp/r09_hot_w/temperature_ramp_seed_525385756_from_pressure_equil_seed_353168294_P_15GPa_T_300K_density_0.2_P_15GPa_300K_to_2340K.xyz source_frame=25385 source_time_ps=138.465 seed_atoms=160,245 seed_distance_A=1.4736548283060473 h2_present_current_frame=F environment_radius_A=2.744143826435459 cluster_build_rule=nearest_complete_covalent_fragments max_atoms_rule=reject_not_truncate_fragments charge=0 spin=1 event_id=3 event_frame=25387 frames_before_event=2 h2_definition=mutual_nearest_neighbor_HH_not_O_N_S event_h2_distance_A=0.9636382531515638 cluster_id=23 pbc="F F F"
H       12.54774989      13.89794266      12.74966918
H       12.37150312      13.87740105      11.46774793
O       11.98383240      11.43948273      10.52329637
O       12.58111324      14.68178914      12.02529282
H       13.01060545      11.81508678      13.44469375
H       14.11577011      12.67053240      13.44418078
H       10.40851295      12.01206863      12.69544240
H       12.28106930      12.18377090      11.34414717
O       13.95416897      11.79783769      13.44923894
O       11.26627562      12.38725205      13.10463233
H       11.25251130      10.71485281      10.52331908
H       11.71893070      11.81622910      12.65585284
12
Lattice="24.0 0.0 0.0 0.0 24.0 0.0 0.0 0.0 24.0" Properties=species:S:1:pos:R:3 sample_kind=h2_formation source_xyz=/home/kevinsh/mlip/outputsfull/temperature_ramp/r09_hot_w/temperature_ramp_seed_525385756_from_pressure_equil_seed_353168294_P_15GPa_T_300K_density_0.2_P_15GPa_300K_to_2340K.xyz source_frame=25384 source_time_ps=138.4625 seed_atoms=160,245 seed_distance_A=1.5247150850109892 h2_present_current_frame=F environment_radius_A=2.687978782953842 cluster_build_rule=nearest_complete_covalent_fragments max_atoms_rule=reject_not_truncate_fragments charge=0 spin=1 event_id=3 event_frame=25387 frames_before_event=3 h2_definition=mutual_nearest_neighbor_HH_not_O_N_S event_h2_distance_A=0.9636382531515638 cluster_id=24 pbc="F F F"
H       12.21361562      13.88477382      12.80100574
H       12.23640099      14.01945318      11.46605146
O       11.89157695      11.44512989      10.48191417
O       12.45003698      14.64942047      12.05716478
H       12.91651405      11.81619144      13.46243963
H       13.91387141      12.82861411      13.46084305
H       10.20697165      12.03028175      12.62508376
H       12.27090306      12.37635099      11.39488804
O       13.84714840      11.83811928      13.39356888
O       11.12882560      12.42062690      13.06775994
H       11.12700132      10.82067117      10.51725935
H       11.72909694      11.62364901      12.60511197
12
Lattice="24.0 0.0 0.0 0.0 24.0 0.0 0.0 0.0 24.0" Properties=species:S:1:pos:R:3 sample_kind=h2_formation source_xyz=/home/kevinsh/mlip/outputsfull/temperature_ramp/r09_hot_w/temperature_ramp_seed_525385756_from_pressure_equil_seed_353168294_P_15GPa_T_300K_density_0.2_P_15GPa_300K_to_2340K.xyz source_frame=25383 source_time_ps=138.46 seed_atoms=160,245 seed_distance_A=1.689742418679767 h2_present_current_frame=F environment_radius_A=2.6932610163020096 cluster_build_rule=nearest_complete_covalent_fragments max_atoms_rule=reject_not_truncate_fragments charge=0 spin=1 event_id=3 event_frame=25387 frames_before_event=4 h2_definition=mutual_nearest_neighbor_HH_not_O_N_S event_h2_distance_A=0.9636382531515638 cluster_id=25 pbc="F F F"
H       11.99638935      14.09118523      12.86975039
H       12.14940638      14.11657644      11.30969589
O       11.89502020      11.50478175      10.51207430
O       12.41197217      14.65604759      12.17130384
H       12.84496526      11.82462812      13.55909798
H       13.87154233      12.99989866      13.59362156
H       10.18677475      12.18839952      12.71877357
H       12.26890195      12.41502863      11.31498151
O       13.83163212      11.92309154      13.41427679
O       11.08794267      12.48417505      13.08164482
H       11.11286435      11.01687323      10.58497753
H       11.73109805      11.58497137      12.68501850
12
Lattice="24.0 0.0 0.0 0.0 24.0 0.0 0.0 0.0 24.0" Properties=species:S:1:pos:R:3 sample_kind=h2_formation source_xyz=/home/kevinsh/mlip/outputsfull/temperature_ramp/r09_hot_w/temperature_ramp_seed_525385756_from_pressure_equil_seed_353168294_P_15GPa_T_300K_density_0.2_P_15GPa_300K_to_2340K.xyz source_frame=25382 source_time_ps=138.4575 seed_atoms=160,245 seed_distance_A=1.9401260576408013 h2_present_current_frame=F environment_radius_A=3.511021829585703 cluster_build_rule=nearest_complete_covalent_fragments max_atoms_rule=reject_not_truncate_fragments charge=0 spin=1 event_id=3 event_frame=25387 frames_before_event=5 h2_definition=mutual_nearest_neighbor_HH_not_O_N_S event_h2_distance_A=0.9636382531515638 cluster_id=26 pbc="F F F"
O        9.31360908      10.94956443      12.57069870
H       10.20637523      10.87601505      12.17186456
O       12.04541548      11.58876086      10.59619539
H       12.99738445      11.84078861      13.68595952
H       13.99276848      12.96618022      13.77687208
H       10.32599407      12.39666370      12.90715167
H       12.30136547      12.24826427      11.11198762
O       13.94169744      12.02636998      13.50086195
H        8.67355340      10.90726544      11.73931156
O       11.19642530      12.54049999      13.13333869
H       11.14291488      11.19638293      10.71022720
H       11.69863453      11.75173573      12.88801238
12
Lattice="24.0 0.0 0.0 0.0 24.0 0.0 0.0 0.0 24.0" Properties=species:S:1:pos:R:3 sample_kind=h2_formation source_xyz=/home/kevinsh/mlip/outputsfull/temperature_ramp/r09_hot_w/temperature_ramp_seed_525385756_from_pressure_equil_seed_353168294_P_15GPa_T_300K_density_0.2_P_15GPa_300K_to_2340K.xyz source_frame=25381 source_time_ps=138.455 seed_atoms=160,245 seed_distance_A=2.107264315774464 h2_present_current_frame=F environment_radius_A=3.508209418919176 cluster_build_rule=nearest_complete_covalent_fragments max_atoms_rule=reject_not_truncate_fragments charge=0 spin=1 event_id=3 event_frame=25387 frames_before_event=6 h2_definition=mutual_nearest_neighbor_HH_not_O_N_S event_h2_distance_A=0.9636382531515638 cluster_id=27 pbc="F F F"
O        9.38419425      10.89577656      12.50688034
H       10.28202777      10.87687695      12.29372998
O       12.13365919      11.52882272      10.55064365
H       13.14297096      11.72964061      13.67292077
H       14.09079498      12.81385818      13.86452139
H       10.26564689      12.43136393      12.96586071
H       12.37023849      12.28185464      11.05468410
O       13.99237859      12.00366429      13.49242981
H        8.67988321      10.91890045      11.66002711
O       11.26573044      12.48036099      13.07411797
H       11.16559837      11.30045401      10.70483934
H       11.62976151      11.71814536      12.94531590
12
Lattice="24.0 0.0 0.0 0.0 24.0 0.0 0.0 0.0 24.0" Properties=species:S:1:pos:R:3 sample_kind=h2_formation source_xyz=/home/kevinsh/mlip/outputsfull/temperature_ramp/r09_hot_w/temperature_ramp_seed_525385756_from_pressure_equil_seed_353168294_P_15GPa_T_300K_density_0.2_P_15GPa_300K_to_2340K.xyz source_frame=25380 source_time_ps=138.4525 seed_atoms=160,245 seed_distance_A=2.2358975412656954 h2_present_current_frame=F environment_radius_A=3.4145718002588947 cluster_build_rule=nearest_complete_covalent_fragments max_atoms_rule=reject_not_truncate_fragments charge=0 spin=1 event_id=3 event_frame=25387 frames_before_event=7 h2_definition=mutual_nearest_neighbor_HH_not_O_N_S event_h2_distance_A=0.9636382531515638 cluster_id=28 pbc="F F F"
O        9.33364847      10.89011156      12.39613815
H       10.28870194      10.89812993      12.28057660
O       12.10103422      11.49887860      10.45549448
H       13.07224838      11.61966897      13.61312342
H       14.10779490      12.88831672      13.98726820
H       10.15098105      12.41361131      12.99459087
H       12.40274763      12.57073685      11.12715222
O       13.94025130      12.01296499      13.45257713
H        8.75374536      10.99104527      11.67884316
O       11.21983864      12.48313769      12.97851599
H       11.16814995      11.49133956      10.61761422
H       11.59725237      11.42926315      12.87284779
12
Lattice="24.0 0.0 0.0 0.0 24.0 0.0 0.0 0.0 24.0" Properties=species:S:1:pos:R:3 sample_kind=h2_formation source_xyz=/home/kevinsh/mlip/outputsfull/temperature_ramp/r09_hot_w/temperature_ramp_seed_525385756_from_pressure_equil_seed_353168294_P_15GPa_T_300K_density_0.2_P_15GPa_300K_to_2340K.xyz source_frame=25379 source_time_ps=138.45 seed_atoms=160,245 seed_distance_A=2.32077080004391 h2_present_current_frame=F environment_radius_A=3.258404664929025 cluster_build_rule=nearest_complete_covalent_fragments max_atoms_rule=reject_not_truncate_fragments charge=0 spin=1 event_id=3 event_frame=25387 frames_before_event=8 h2_definition=mutual_nearest_neighbor_HH_not_O_N_S event_h2_distance_A=0.9636382531515638 cluster_id=29 pbc="F F F"
O        9.34797327      10.95601568      12.39022886
H       10.30980679      10.98293050      12.26265612
O       12.13211212      11.56108038      10.46756918
H       13.08254835      11.61269278      13.63483748
H       14.13354470      12.92671708      14.15884098
H       10.27746415      12.37005485      13.13526140
H       12.43039001      12.60713067      11.10969047
O       13.95273760      12.09487618      13.51996228
H        8.86871634      11.17041766      11.64778306
O       11.23399838      12.54318101      12.97739106
H       11.19262744      11.74996962      10.59431833
H       11.56960999      11.39286933      12.89030953
12
Lattice="24.0 0.0 0.0 0.0 24.0 0.0 0.0 0.0 24.0" Properties=species:S:1:pos:R:3 sample_kind=h2_formation source_xyz=/home/kevinsh/mlip/outputsfull/temperature_ramp/r09_hot_w/temperature_ramp_seed_525385756_from_pressure_equil_seed_353168294_P_15GPa_T_300K_density_0.2_P_15GPa_300K_to_2340K.xyz source_frame=25378 source_time_ps=138.4475 seed_atoms=160,245 seed_distance_A=2.3033130986149293 h2_present_current_frame=F environment_radius_A=3.251375100149097 cluster_build_rule=nearest_complete_covalent_fragments max_atoms_rule=reject_not_truncate_fragments charge=0 spin=1 event_id=3 event_frame=25387 frames_before_event=9 h2_definition=mutual_nearest_neighbor_HH_not_O_N_S event_h2_distance_A=0.9636382531515638 cluster_id=30 pbc="F F F"
O        9.40584470      11.04170120      12.46915671
H       10.30786474      11.08996935      12.24460626
O       12.19895167      11.66559912      10.56695074
H       13.22159669      11.70507410      13.72213045
H       14.11133377      12.82323599      14.33152145
H       10.48278912      12.30844301      13.38360680
H       12.45700599      12.36599950      11.00828295
O       14.00342469      12.19990629      13.67167096
H        8.95167697      11.40928913      11.52096805
O       11.29217746      12.60330128      13.05046301
H       11.24102183      11.99333186      10.60928816
H       11.54299401      11.63400050      12.99171705
12
Lattice="24.0 0.0 0.0 0.0 24.0 0.0 0.0 0.0 24.0" Properties=species:S:1:pos:R:3 sample_kind=h2_formation source_xyz=/home/kevinsh/mlip/outputsfull/temperature_ramp/r09_hot_w/temperature_ramp_seed_525385756_from_pressure_equil_seed_353168294_P_15GPa_T_300K_density_0.2_P_15GPa_300K_to_2340K.xyz source_frame=25467 source_time_ps=138.67 seed_atoms=133,139 seed_distance_A=0.974039009824094 h2_present_current_frame=T environment_radius_A=3.475746770275339 cluster_build_rule=nearest_complete_covalent_fragments max_atoms_rule=reject_not_truncate_fragments charge=0 spin=1 event_id=4 event_frame=25467 frames_before_event=0 h2_definition=mutual_nearest_neighbor_HH_not_O_N_S event_h2_distance_A=0.974039009824094 cluster_id=31 pbc="F F F"
H       11.78813145      10.29710405      10.85709258
O       12.23415079      10.43956030       9.97076127
H       12.53925609       9.67489234       9.47336333
H       11.37692068      13.12458267      14.53324960
O       13.23248097      12.47599192      12.46033583
O       10.60029406      12.33341682      11.68958212
H       12.43398930      11.90152509      12.19784838
H       11.56601070      12.09847491      11.80215162
H       10.73154777      13.21905474      11.75225403
O       10.83749607      12.63566688      13.91302119
H       11.42863894      11.92848683      13.92552961
H       13.98888547      11.80540082      12.58985919
12
Lattice="24.0 0.0 0.0 0.0 24.0 0.0 0.0 0.0 24.0" Properties=species:S:1:pos:R:3 sample_kind=h2_formation source_xyz=/home/kevinsh/mlip/outputsfull/temperature_ramp/r09_hot_w/temperature_ramp_seed_525385756_from_pressure_equil_seed_353168294_P_15GPa_T_300K_density_0.2_P_15GPa_300K_to_2340K.xyz source_frame=25466 source_time_ps=138.6675 seed_atoms=133,139 seed_distance_A=1.5255553511441446 h2_present_current_frame=F environment_radius_A=3.502299847475955 cluster_build_rule=nearest_complete_covalent_fragments max_atoms_rule=reject_not_truncate_fragments charge=0 spin=1 event_id=4 event_frame=25467 frames_before_event=1 h2_definition=mutual_nearest_neighbor_HH_not_O_N_S event_h2_distance_A=0.974039009824094 cluster_id=32 pbc="F F F"
H       11.72435568      10.30993165      10.96921597
O       12.21146493      10.49202426      10.01746794
H       12.49659865       9.52671116       9.57052756
H       11.26854912      13.28769823      14.59399714
O       13.18358123      12.55341485      12.51674013
O       10.59288746      12.41614289      11.74901277
H       12.64035494      11.86379160      12.39143659
H       11.35964506      12.13620840      11.60856341
H       10.85663245      13.35409118      11.84630418
O       10.80201637      12.71270153      13.97081269
H       11.52290184      12.01806957      13.86656252
H       13.92850932      11.95486495      12.42738208
12
Lattice="24.0 0.0 0.0 0.0 24.0 0.0 0.0 0.0 24.0" Properties=species:S:1:pos:R:3 sample_kind=h2_formation source_xyz=/home/kevinsh/mlip/outputsfull/temperature_ramp/r09_hot_w/temperature_ramp_seed_525385756_from_pressure_equil_seed_353168294_P_15GPa_T_300K_density_0.2_P_15GPa_300K_to_2340K.xyz source_frame=25465 source_time_ps=138.665 seed_atoms=133,139 seed_distance_A=1.7325969836158222 h2_present_current_frame=F environment_radius_A=3.2354892458151334 cluster_build_rule=nearest_complete_covalent_fragments max_atoms_rule=reject_not_truncate_fragments charge=0 spin=1 event_id=4 event_frame=25467 frames_before_event=2 h2_definition=mutual_nearest_neighbor_HH_not_O_N_S event_h2_distance_A=0.974039009824094 cluster_id=33 pbc="F F F"
H       11.67348563      10.46415248      10.92268002
O       12.06608759      10.68568953      10.10221852
H       12.28447424       9.73914301       9.82799101
H       11.05674629      13.58542966      14.65802105
O       13.01649223      12.78041681      12.61097537
O       10.44147046      12.65407072      11.83943024
H       12.58108077      11.83989587      12.62224182
H       11.41891923      12.16010413      11.37775818
H       10.82573328      13.59563873      11.99518035
O       10.64726777      12.93230290      14.06502858
H       11.41607495      12.33405197      13.83451887
H       13.78630106      12.29339984      12.31361332
12
Lattice="24.0 0.0 0.0 0.0 24.0 0.0 0.0 0.0 24.0" Properties=species:S:1:pos:R:3 sample_kind=h2_formation source_xyz=/home/kevinsh/mlip/outputsfull/temperature_ramp/r09_hot_w/temperature_ramp_seed_525385756_from_pressure_equil_seed_353168294_P_15GPa_T_300K_density_0.2_P_15GPa_300K_to_2340K.xyz source_frame=25464 source_time_ps=138.6625 seed_atoms=133,139 seed_distance_A=2.10898585452733 h2_present_current_frame=F environment_radius_A=3.276362799871498 cluster_build_rule=nearest_complete_covalent_fragments max_atoms_rule=reject_not_truncate_fragments charge=0 spin=1 event_id=4 event_frame=25467 frames_before_event=3 h2_definition=mutual_nearest_neighbor_HH_not_O_N_S event_h2_distance_A=0.974039009824094 cluster_id=34 pbc="F F F"
H       11.73284598      10.46934734      10.90867301
O       12.06339794      10.75001705      10.10892095
H       12.24027274       9.89738522      10.00834717
H       11.00045320      13.71165592      14.60877239
O       12.98330570      12.86107931      12.63471264
O       10.44896731      12.75556276      11.84492366
H       12.64482104      11.79127282      12.80783298
H       11.35517896      12.20872718      11.19216702
H       10.90228278      13.51299269      12.09083762
O       10.63266623      13.01618167      14.09030172
H       11.37128656      12.60878230      13.73568518
H       13.83103426      12.56314452      12.13119186
12
Lattice="24.0 0.0 0.0 0.0 24.0 0.0 0.0 0.0 24.0" Properties=species:S:1:pos:R:3 sample_kind=h2_formation source_xyz=/home/kevinsh/mlip/outputsfull/temperature_ramp/r09_hot_w/temperature_ramp_seed_525385756_from_pressure_equil_seed_353168294_P_15GPa_T_300K_density_0.2_P_15GPa_300K_to_2340K.xyz source_frame=25463 source_time_ps=138.66 seed_atoms=133,139 seed_distance_A=2.548230832510355 h2_present_current_frame=F environment_radius_A=3.129694946458419 cluster_build_rule=nearest_complete_covalent_fragments max_atoms_rule=reject_not_truncate_fragments charge=0 spin=1 event_id=4 event_frame=25467 frames_before_event=4 h2_definition=mutual_nearest_neighbor_HH_not_O_N_S event_h2_distance_A=0.974039009824094 cluster_id=35 pbc="F F F"
H       11.06448220      13.64185723      14.49481497
O       13.04462176      12.69960289      12.57892446
O       10.56472293      12.61900589      11.75195813
H       12.88822335      11.76772919      12.88344759
H       11.11177665      12.23227081      11.11655241
H       11.14800928      13.25626725      12.16368211
H       11.58673821      10.95149023      13.56210850
O       10.70326430      12.88067822      14.04138479
H       11.48705492      12.64695372      13.50157638
H       13.84340061      12.68928866      11.94552979
O       11.32916627      10.21338448      13.00254674
H       11.33885465       9.49679933      13.67609601
12
Lattice="24.0 0.0 0.0 0.0 24.0 0.0 0.0 0.0 24.0" Properties=species:S:1:pos:R:3 sample_kind=h2_formation source_xyz=/home/kevinsh/mlip/outputsfull/temperature_ramp/r09_hot_w/temperature_ramp_seed_525385756_from_pressure_equil_seed_353168294_P_15GPa_T_300K_density_0.2_P_15GPa_300K_to_2340K.xyz source_frame=25462 source_time_ps=138.6575 seed_atoms=133,139 seed_distance_A=3.1073282728148257 h2_present_current_frame=F environment_radius_A=3.1153137570242957 cluster_build_rule=nearest_complete_covalent_fragments max_atoms_rule=reject_not_truncate_fragments charge=0 spin=1 event_id=4 event_frame=25467 frames_before_event=5 h2_definition=mutual_nearest_neighbor_HH_not_O_N_S event_h2_distance_A=0.974039009824094 cluster_id=36 pbc="F F F"
H       11.03627138      13.58984833      14.49975783
O       13.02381590      12.54478924      12.61642228
O       10.59076255      12.49451691      11.76387062
H       13.12160785      11.77579754      13.05147579
H       10.87839215      12.22420246      10.94852421
H       11.30942212      13.03598173      12.29071258
H       11.57349302      10.93733504      13.42500898
O       10.68950988      12.75605692      14.08931561
H       11.47505788      12.69411149      13.40136150
H       13.65232514      12.83944805      11.94568865
O       11.32477330      10.12470158      13.01635869
H       11.42062208       9.42356431      13.62824874
12
Lattice="24.0 0.0 0.0 0.0 24.0 0.0 0.0 0.0 24.0" Properties=species:S:1:pos:R:3 sample_kind=h2_formation source_xyz=/home/kevinsh/mlip/outputsfull/temperature_ramp/r09_hot_w/temperature_ramp_seed_525385756_from_pressure_equil_seed_353168294_P_15GPa_T_300K_density_0.2_P_15GPa_300K_to_2340K.xyz source_frame=25461 source_time_ps=138.655 seed_atoms=133,139 seed_distance_A=3.808050605364212 h2_present_current_frame=F environment_radius_A=3.2344745793792145 cluster_build_rule=nearest_complete_covalent_fragments max_atoms_rule=reject_not_truncate_fragments charge=0 spin=1 event_id=4 event_frame=25467 frames_before_event=6 h2_definition=mutual_nearest_neighbor_HH_not_O_N_S event_h2_distance_A=0.974039009824094 cluster_id=37 pbc="F F F"
O       13.38260654      13.25241755      10.21955723
O       12.87683471      12.51024016      12.70612511
O       10.49039635      12.48922902      11.84728837
H       13.31352335      11.72180825      13.35002893
H       10.68647665      12.27819175      10.64997107
H       11.23483963      12.85217232      12.26026240
H       11.42665422      11.04877724      13.39924720
H       13.33673205      13.07712837      12.03194220
H       12.79556997      13.42416480       9.20703583
O       11.19528325      10.14896820      13.07724998
H       12.88964605      12.33467846      10.51049085
H       11.40678997       9.40392578      13.67629205
12
Lattice="24.0 0.0 0.0 0.0 24.0 0.0 0.0 0.0 24.0" Properties=species:S:1:pos:R:3 sample_kind=h2_formation source_xyz=/home/kevinsh/mlip/outputsfull/temperature_ramp/r09_hot_w/temperature_ramp_seed_525385756_from_pressure_equil_seed_353168294_P_15GPa_T_300K_density_0.2_P_15GPa_300K_to_2340K.xyz source_frame=25460 source_time_ps=138.6525 seed_atoms=133,139 seed_distance_A=4.171493655089645 h2_present_current_frame=F environment_radius_A=3.178386394744968 cluster_build_rule=nearest_complete_covalent_fragments max_atoms_rule=reject_not_truncate_fragments charge=0 spin=1 event_id=4 event_frame=25467 frames_before_event=7 h2_definition=mutual_nearest_neighbor_HH_not_O_N_S event_h2_distance_A=0.974039009824094 cluster_id=38 pbc="F F F"
O       13.29034223      13.11208548      10.15822568
O       12.75986635      12.36348724      12.68261118
O       10.41270641      12.37025344      11.78736043
H       13.49321681      11.69501260      13.42394736
H       10.50678319      12.30498740      10.57605264
H       11.28749864      12.59060085      12.02747077
H       11.31951294      10.97967498      13.29071381
H       13.06445652      13.11610919      12.07142239
H       12.64719120      13.24218752       9.19651049
O       11.09306898      10.06909169      13.01477208
H       12.86316136      12.41735517      10.43405905
H       11.41755034       9.31682947      13.60108975
12
Lattice="24.0 0.0 0.0 0.0 24.0 0.0 0.0 0.0 24.0" Properties=species:S:1:pos:R:3 sample_kind=h2_formation source_xyz=/home/kevinsh/mlip/outputsfull/temperature_ramp/r09_hot_w/temperature_ramp_seed_525385756_from_pressure_equil_seed_353168294_P_15GPa_T_300K_density_0.2_P_15GPa_300K_to_2340K.xyz source_frame=25459 source_time_ps=138.65 seed_atoms=133,139 seed_distance_A=4.103063096099254 h2_present_current_frame=F environment_radius_A=3.282315083079299 cluster_build_rule=nearest_complete_covalent_fragments max_atoms_rule=reject_not_truncate_fragments charge=0 spin=1 event_id=4 event_frame=25467 frames_before_event=8 h2_definition=mutual_nearest_neighbor_HH_not_O_N_S event_h2_distance_A=0.974039009824094 cluster_id=39 pbc="F F F"
O       13.29271976      12.90363603      10.00291073
H       10.48512450      13.28025524      14.61528030
O       12.74458641      12.12771195      12.58925249
O       10.42243562      12.16353046      11.62774006
H       13.59837867      11.74164550      13.25984931
H       10.40162133      12.25835450      10.74015069
H       11.49875740      12.26728492      11.71984657
O       10.44302661      12.43683660      14.08915018
H       11.00392782      12.72961076      13.27565313
H       12.89766749      12.93077926      12.12985964
H       12.73953176      13.02800428       9.31626230
H       12.78707226      12.15034539      10.40044042
12
Lattice="24.0 0.0 0.0 0.0 24.0 0.0 0.0 0.0 24.0" Properties=species:S:1:pos:R:3 sample_kind=h2_formation source_xyz=/home/kevinsh/mlip/outputsfull/temperature_ramp/r09_hot_w/temperature_ramp_seed_525385756_from_pressure_equil_seed_353168294_P_15GPa_T_300K_density_0.2_P_15GPa_300K_to_2340K.xyz source_frame=25458 source_time_ps=138.6475 seed_atoms=133,139 seed_distance_A=4.060131447968156 h2_present_current_frame=F environment_radius_A=3.357295607835753 cluster_build_rule=nearest_complete_covalent_fragments max_atoms_rule=reject_not_truncate_fragments charge=0 spin=1 event_id=4 event_frame=25467 frames_before_event=9 h2_definition=mutual_nearest_neighbor_HH_not_O_N_S event_h2_distance_A=0.974039009824094 cluster_id=40 pbc="F F F"
O       13.41689040      12.61752180      10.06665682
H       10.47917482      12.94327066      14.84055717
O       12.84824096      11.81035731      12.70868991
O       10.55748778      11.88069843      11.68811835
H       13.64701221      11.79508955      13.16898646
H       10.35298779      12.20491045      10.83101354
H       11.57183086      11.83512545      11.61452842
O       10.53758769      12.17535470      14.20498605
H       10.99498098      12.51506945      13.36553220
H       12.90296798      12.70541756      12.38411906
H       12.77286935      12.86024824       9.43633642
H       12.83666904      11.77675967      10.57761199
12
Lattice="24.0 0.0 0.0 0.0 24.0 0.0 0.0 0.0 24.0" Properties=species:S:1:pos:R:3 sample_kind=h2_formation source_xyz=/home/kevinsh/mlip/outputsfull/temperature_ramp/r09_hot_w/temperature_ramp_seed_525385756_from_pressure_equil_seed_353168294_P_15GPa_T_300K_density_0.2_P_15GPa_300K_to_2340K.xyz source_frame=25610 source_time_ps=139.0275 seed_atoms=247,260 seed_distance_A=0.985322007322081 h2_present_current_frame=T environment_radius_A=3.917605059066268 cluster_build_rule=nearest_complete_covalent_fragments max_atoms_rule=reject_not_truncate_fragments charge=0 spin=1 event_id=5 event_frame=25610 frames_before_event=0 h2_definition=mutual_nearest_neighbor_HH_not_O_N_S event_h2_distance_A=0.985322007322081 cluster_id=41 pbc="F F F"
O       13.29593615      10.76294813      11.04722044
H       12.94447134      10.07787243      10.48918104
H       13.89915762      10.62020299      11.69757786
O       12.13429831      13.16116026      12.43224715
O       10.81338751      11.16174011      12.48636871
H       12.25449865      11.02927644      15.78689260
O       12.10487797      10.39543712      15.01842429
H       11.77685255      11.62162171      12.22304696
H       10.64746899      10.28896814      12.36309619
H       12.22314745      12.37837829      11.77695304
H       11.60103266      13.91477657      12.16237380
H       12.07119598      10.98074159      14.19920854
12
Lattice="24.0 0.0 0.0 0.0 24.0 0.0 0.0 0.0 24.0" Properties=species:S:1:pos:R:3 sample_kind=h2_formation source_xyz=/home/kevinsh/mlip/outputsfull/temperature_ramp/r09_hot_w/temperature_ramp_seed_525385756_from_pressure_equil_seed_353168294_P_15GPa_T_300K_density_0.2_P_15GPa_300K_to_2340K.xyz source_frame=25609 source_time_ps=139.025 seed_atoms=247,260 seed_distance_A=1.2996836154485338 h2_present_current_frame=F environment_radius_A=3.9021566284336116 cluster_build_rule=nearest_complete_covalent_fragments max_atoms_rule=reject_not_truncate_fragments charge=0 spin=1 event_id=5 event_frame=25610 frames_before_event=1 h2_definition=mutual_nearest_neighbor_HH_not_O_N_S event_h2_distance_A=0.985322007322081 cluster_id=42 pbc="F F F"
O       13.40595712      10.83505047      11.03210789
H       13.07876627      10.02442225      10.51080806
H       14.01349711      10.74508860      11.77467481
O       12.18611472      13.21339033      12.41948184
O       10.83098753      11.30293504      12.52409787
H       12.39551460      10.97297616      15.74374366
O       12.22962736      10.47025367      14.99084405
H       11.69401314      11.51622548      12.30761767
H       10.71748362      10.32139878      12.31193144
H       12.30598686      12.48377452      11.69238233
H       11.67510115      13.87208332      11.85853110
H       12.17724282      11.15828374      14.12993598
11
Lattice="24.0 0.0 0.0 0.0 24.0 0.0 0.0 0.0 24.0" Properties=species:S:1:pos:R:3 sample_kind=h2_formation source_xyz=/home/kevinsh/mlip/outputsfull/temperature_ramp/r09_hot_w/temperature_ramp_seed_525385756_from_pressure_equil_seed_353168294_P_15GPa_T_300K_density_0.2_P_15GPa_300K_to_2340K.xyz source_frame=25608 source_time_ps=139.0225 seed_atoms=247,260 seed_distance_A=1.665586414136799 h2_present_current_frame=F environment_radius_A=2.7603897784477964 cluster_build_rule=nearest_complete_covalent_fragments max_atoms_rule=reject_not_truncate_fragments charge=0 spin=1 event_id=5 event_frame=25610 frames_before_event=2 h2_definition=mutual_nearest_neighbor_HH_not_O_N_S event_h2_distance_A=0.985322007322081 cluster_id=43 pbc="F F F"
O       13.45106637      10.86279529      11.00473210
O       11.04976821      12.83869445      10.01932703
H       13.16192798       9.93239299      10.58766989
H       14.07665862      10.73636063      11.82827889
O       12.17727063      13.21080125      12.38395020
H       12.02665607      13.08037898       9.97498835
O       10.77195647      11.38366457      12.55744193
H       11.66720249      11.32260719      12.35203597
H       10.73816660      10.38890804      12.26028168
H       12.33279751      12.67739281      11.64796403
H       11.69739612      13.72215971      11.60954254
11
Lattice="24.0 0.0 0.0 0.0 24.0 0.0 0.0 0.0 24.0" Properties=species:S:1:pos:R:3 sample_kind=h2_formation source_xyz=/home/kevinsh/mlip/outputsfull/temperature_ramp/r09_hot_w/temperature_ramp_seed_525385756_from_pressure_equil_seed_353168294_P_15GPa_T_300K_density_0.2_P_15GPa_300K_to_2340K.xyz source_frame=25607 source_time_ps=139.02 seed_atoms=247,260 seed_distance_A=1.8259930875110133 h2_present_current_frame=F environment_radius_A=2.6153242150945473 cluster_build_rule=nearest_complete_covalent_fragments max_atoms_rule=reject_not_truncate_fragments charge=0 spin=1 event_id=5 event_frame=25610 frames_before_event=3 h2_definition=mutual_nearest_neighbor_HH_not_O_N_S event_h2_distance_A=0.985322007322081 cluster_id=44 pbc="F F F"
O       13.38030537      10.92697672      11.02460628
O       10.94086435      12.87487469      10.07945715
H       13.12682718       9.99147586      10.76064046
H       13.92030387      10.73617391      11.76491567
O       12.04714103      13.25405328      12.38139132
H       11.91422452      13.16048808      10.07631735
O       10.58499381      11.48478879      12.63193820
H       11.69189664      11.24128208      12.40371045
H       10.56491097      10.60308718      12.29899638
H       12.30810336      12.75871792      11.59628955
H       11.59098192      13.62988554      11.55731818
12
Lattice="24.0 0.0 0.0 0.0 24.0 0.0 0.0 0.0 24.0" Properties=species:S:1:pos:R:3 sample_kind=h2_formation source_xyz=/home/kevinsh/mlip/outputsfull/temperature_ramp/r09_hot_w/temperature_ramp_seed_525385756_from_pressure_equil_seed_353168294_P_15GPa_T_300K_density_0.2_P_15GPa_300K_to_2340K.xyz source_frame=25606 source_time_ps=139.0175 seed_atoms=247,260 seed_distance_A=1.8894585741767373 h2_present_current_frame=F environment_radius_A=4.002871402243091 cluster_build_rule=nearest_complete_covalent_fragments max_atoms_rule=reject_not_truncate_fragments charge=0 spin=1 event_id=5 event_frame=25610 frames_before_event=4 h2_definition=mutual_nearest_neighbor_HH_not_O_N_S event_h2_distance_A=0.985322007322081 cluster_id=45 pbc="F F F"
O       13.36489195      10.99600159      10.99081693
H        8.88985397      12.84857046      14.37274089
H        9.64789033      11.71955525      13.58044431
H       13.10764151      10.12490623      10.85495184
H       13.88192041      10.72639765      11.69715968
O       11.97896802      13.30304531      12.31786598
O        8.67973540      11.98722536      13.88967490
O       10.47654048      11.58070707      12.65035388
H       11.58541023      11.28447367      12.45678313
H       10.32770744      10.72622481      12.27630547
H       12.41458977      12.71552633      11.54321687
H       11.46093728      13.63996445      11.58126499
12
Lattice="24.0 0.0 0.0 0.0 24.0 0.0 0.0 0.0 24.0" Properties=species:S:1:pos:R:3 sample_kind=h2_formation source_xyz=/home/kevinsh/mlip/outputsfull/temperature_ramp/r09_hot_w/temperature_ramp_seed_525385756_from_pressure_equil_seed_353168294_P_15GPa_T_300K_density_0.2_P_15GPa_300K_to_2340K.xyz source_frame=25605 source_time_ps=139.015 seed_atoms=247,260 seed_distance_A=1.9620633609160782 h2_present_current_frame=F environment_radius_A=3.825384190741966 cluster_build_rule=nearest_complete_covalent_fragments max_atoms_rule=reject_not_truncate_fragments charge=0 spin=1 event_id=5 event_frame=25610 frames_before_event=5 h2_definition=mutual_nearest_neighbor_HH_not_O_N_S event_h2_distance_A=0.985322007322081 cluster_id=46 pbc="F F F"
O       13.46139493      10.99856225      10.84280389
H        8.97307789      12.90481605      14.15699204
H        9.64793064      11.74788359      13.33713522
H       13.09381839      10.10062249      10.73880547
H       14.08122362      10.65242640      11.62756025
O       12.03662815      13.26719634      12.13001010
O        8.73623043      12.01374684      13.71348869
O       10.50411509      11.58985051      12.54715506
H       11.40223876      11.35926067      12.44108703
H       10.12045875      10.69706023      12.14185058
H       12.59776124      12.64073933      11.55891297
H       11.35638180      13.65485547      11.53471562
12
Lattice="24.0 0.0 0.0 0.0 24.0 0.0 0.0 0.0 24.0" Properties=species:S:1:pos:R:3 sample_kind=h2_formation source_xyz=/home/kevinsh/mlip/outputsfull/temperature_ramp/r09_hot_w/temperature_ramp_seed_525385756_from_pressure_equil_seed_353168294_P_15GPa_T_300K_density_0.2_P_15GPa_300K_to_2340K.xyz source_frame=25604 source_time_ps=139.0125 seed_atoms=247,260 seed_distance_A=1.9422692523795075 h2_present_current_frame=F environment_radius_A=3.706100851304694 cluster_build_rule=nearest_complete_covalent_fragments max_atoms_rule=reject_not_truncate_fragments charge=0 spin=1 event_id=5 event_frame=25610 frames_before_event=6 h2_definition=mutual_nearest_neighbor_HH_not_O_N_S event_h2_distance_A=0.985322007322081 cluster_id=47 pbc="F F F"
O       13.51089562      10.97968697      10.68802968
H        8.92191930      12.84413261      13.88362493
H        9.53571499      11.77680725      13.12816934
H       12.98442492      10.11430999      10.54949425
H       14.17084661      10.62831129      11.41307766
O       12.04922912      13.20730432      11.92212303
O        8.73411554      12.02798016      13.52516890
O       10.47495575      11.56177248      12.41143881
H       11.34548144      11.40452774      12.40015085
H        9.90954747      10.76353021      12.07222911
H       12.65451856      12.59547226      11.59984915
H       11.23867606      13.63587087      11.47925912
12
Lattice="24.0 0.0 0.0 0.0 24.0 0.0 0.0 0.0 24.0" Properties=species:S:1:pos:R:3 sample_kind=h2_formation source_xyz=/home/kevinsh/mlip/outputsfull/temperature_ramp/r09_hot_w/temperature_ramp_seed_525385756_from_pressure_equil_seed_353168294_P_15GPa_T_300K_density_0.2_P_15GPa_300K_to_2340K.xyz source_frame=25603 source_time_ps=139.01 seed_atoms=247,260 seed_distance_A=1.8044930652637223 h2_present_current_frame=F environment_radius_A=3.8573320835213196 cluster_build_rule=nearest_complete_covalent_fragments max_atoms_rule=reject_not_truncate_fragments charge=0 spin=1 event_id=5 event_frame=25610 frames_before_event=7 h2_definition=mutual_nearest_neighbor_HH_not_O_N_S event_h2_distance_A=0.985322007322081 cluster_id=48 pbc="F F F"
O       13.42810115      11.02807857      10.62693819
H        8.71745082      12.98529939      13.77004712
H        9.37292839      11.88313454      13.02018992
H       12.78442493      10.35169496      10.41886563
H       14.05891728      10.71428218      11.17330757
O       11.92602107      13.22756880      11.81041900
O        8.57732004      12.11070085      13.42699502
O       10.30243146      11.59397376      12.34954080
H       11.41158205      11.45087164      12.40776361
H        9.68712651      10.96086015      12.13973107
H       12.58841795      12.54912836      11.59223639
H       11.13062107      13.60387190      11.48804153
12
Lattice="24.0 0.0 0.0 0.0 24.0 0.0 0.0 0.0 24.0" Properties=species:S:1:pos:R:3 sample_kind=h2_formation source_xyz=/home/kevinsh/mlip/outputsfull/temperature_ramp/r09_hot_w/temperature_ramp_seed_525385756_from_pressure_equil_seed_353168294_P_15GPa_T_300K_density_0.2_P_15GPa_300K_to_2340K.xyz source_frame=25602 source_time_ps=139.0075 seed_atoms=247,260 seed_distance_A=1.819493703927766 h2_present_current_frame=F environment_radius_A=3.9702089783136736 cluster_build_rule=nearest_complete_covalent_fragments max_atoms_rule=reject_not_truncate_fragments charge=0 spin=1 event_id=5 event_frame=25610 frames_before_event=8 h2_definition=mutual_nearest_neighbor_HH_not_O_N_S event_h2_distance_A=0.985322007322081 cluster_id=49 pbc="F F F"
O       13.48323310      11.08614385      10.63844087
H        8.63910819      13.16411613      13.76402926
H        9.44022243      12.03254883      13.03223426
H       12.73727076      10.61131561      10.32032975
H       14.22877110      10.69740669      11.11977578
O       11.96287545      13.24621729      11.79211744
O        8.54592580      12.19445872      13.41571699
O       10.30837870      11.62164336      12.35874442
H       11.39329047      11.49772764      12.45526405
H        9.60292456      10.96951350      12.23237213
H       12.60670953      12.50227236      11.54473595
H       11.16500687      13.53300063      11.47587570
12
Lattice="24.0 0.0 0.0 0.0 24.0 0.0 0.0 0.0 24.0" Properties=species:S:1:pos:R:3 sample_kind=h2_formation source_xyz=/home/kevinsh/mlip/outputsfull/temperature_ramp/r09_hot_w/temperature_ramp_seed_525385756_from_pressure_equil_seed_353168294_P_15GPa_T_300K_density_0.2_P_15GPa_300K_to_2340K.xyz source_frame=25601 source_time_ps=139.005 seed_atoms=247,260 seed_distance_A=1.9576539106096642 h2_present_current_frame=F environment_radius_A=3.948272637473006 cluster_build_rule=nearest_complete_covalent_fragments max_atoms_rule=reject_not_truncate_fragments charge=0 spin=1 event_id=5 event_frame=25610 frames_before_event=9 h2_definition=mutual_nearest_neighbor_HH_not_O_N_S event_h2_distance_A=0.985322007322081 cluster_id=50 pbc="F F F"
H        8.66781788      13.18587925      13.75473916
H        9.62858533      12.22177640      13.18232789
H       12.29741787       9.83671501      11.54615950
O       12.17055521      13.22888701      11.84159892
O        8.65689579      12.25790339      13.46801589
O       10.48614521      11.61101622      12.41484008
H       11.33393344      11.51123207      12.52494138
H        9.75105252      10.84283210      12.35103480
H       12.66606656      12.48876793      11.47505862
H       11.27132767      13.40794079      11.40694147
H       13.37606480       9.54871081      12.00856699
O       12.59396363       8.96337210      11.92889597
11
Lattice="24.0 0.0 0.0 0.0 24.0 0.0 0.0 0.0 24.0" Properties=species:S:1:pos:R:3 sample_kind=h2_formation source_xyz=/home/kevinsh/mlip/outputsfull/temperature_ramp/r09_hot_w/temperature_ramp_seed_525385756_from_pressure_equil_seed_353168294_P_15GPa_T_300K_density_0.2_P_15GPa_300K_to_2340K.xyz source_frame=25713 source_time_ps=139.285 seed_atoms=167,250 seed_distance_A=0.9151388361219385 h2_present_current_frame=T environment_radius_A=3.129648186219009 cluster_build_rule=nearest_complete_covalent_fragments max_atoms_rule=reject_not_truncate_fragments charge=0 spin=1 event_id=6 event_frame=25713 frames_before_event=0 h2_definition=mutual_nearest_neighbor_HH_not_O_N_S event_h2_distance_A=0.9151388361219385 cluster_id=51 pbc="F F F"
O       10.81588669      12.81460770      12.05139110
O       12.99903263      12.90086428      13.71971639
H       12.95143802      11.19479211       9.12926774
O       12.40598508      11.05950928      12.09498813
H       11.59376109      11.87405256      11.83124880
H       10.19331203      12.03141404      12.05062891
H       12.51835286      13.76225966      13.89440209
O       13.45344899      11.00942405      10.01879771
H       12.74023658      10.75222955      10.84547688
H       13.74568769      12.73556135      14.36523914
H       12.40623890      12.12594744      12.16875120
11
Lattice="24.0 0.0 0.0 0.0 24.0 0.0 0.0 0.0 24.0" Properties=species:S:1:pos:R:3 sample_kind=h2_formation source_xyz=/home/kevinsh/mlip/outputsfull/temperature_ramp/r09_hot_w/temperature_ramp_seed_525385756_from_pressure_equil_seed_353168294_P_15GPa_T_300K_density_0.2_P_15GPa_300K_to_2340K.xyz source_frame=25712 source_time_ps=139.2825 seed_atoms=167,250 seed_distance_A=1.1098237249259246 h2_present_current_frame=F environment_radius_A=3.3236281608899376 cluster_build_rule=nearest_complete_covalent_fragments max_atoms_rule=reject_not_truncate_fragments charge=0 spin=1 event_id=6 event_frame=25713 frames_before_event=1 h2_definition=mutual_nearest_neighbor_HH_not_O_N_S event_h2_distance_A=0.9151388361219385 cluster_id=52 pbc="F F F"
O       10.97561359      12.91017279      11.88832849
O       13.10117016      13.01095258      13.58289820
H       13.13160453      11.08575616       9.01166710
O       12.57404904      11.14576984      11.93844116
H       11.47160107      11.90935667      11.85680247
H       10.21418069      12.24656964      11.72080235
H       12.51599358      13.86666746      13.73484610
O       13.54983997      11.16776689       9.85198672
H       12.77335799      10.92644780      10.50896064
H       13.94760092      12.95867817      14.23881722
H       12.52839893      12.09064333      12.14319753
11
Lattice="24.0 0.0 0.0 0.0 24.0 0.0 0.0 0.0 24.0" Properties=species:S:1:pos:R:3 sample_kind=h2_formation source_xyz=/home/kevinsh/mlip/outputsfull/temperature_ramp/r09_hot_w/temperature_ramp_seed_525385756_from_pressure_equil_seed_353168294_P_15GPa_T_300K_density_0.2_P_15GPa_300K_to_2340K.xyz source_frame=25711 source_time_ps=139.28 seed_atoms=167,250 seed_distance_A=1.4559414450489199 h2_present_current_frame=F environment_radius_A=3.585886704798983 cluster_build_rule=nearest_complete_covalent_fragments max_atoms_rule=reject_not_truncate_fragments charge=0 spin=1 event_id=6 event_frame=25713 frames_before_event=2 h2_definition=mutual_nearest_neighbor_HH_not_O_N_S event_h2_distance_A=0.9151388361219385 cluster_id=53 pbc="F F F"
O       11.04052195      12.97241292      11.69733245
O       13.12317592      13.10020120      13.42812895
H       13.23618867      10.92386580       8.81058686
O       12.64623461      11.20362615      11.75473995
H       11.28627123      11.95779294      11.86306508
H       10.18942747      12.57091777      11.36938626
H       12.50882595      13.82297207      13.55790514
O       13.55999726      11.30476954       9.65643824
H       12.83407109      11.15734460      10.15220160
H       13.86837201      13.26816500      13.95262150
H       12.71372877      12.04220706      12.13693492
11
Lattice="24.0 0.0 0.0 0.0 24.0 0.0 0.0 0.0 24.0" Properties=species:S:1:pos:R:3 sample_kind=h2_formation source_xyz=/home/kevinsh/mlip/outputsfull/temperature_ramp/r09_hot_w/temperature_ramp_seed_525385756_from_pressure_equil_seed_353168294_P_15GPa_T_300K_density_0.2_P_15GPa_300K_to_2340K.xyz source_frame=25710 source_time_ps=139.2775 seed_atoms=167,250 seed_distance_A=1.7757394297136324 h2_present_current_frame=F environment_radius_A=3.4957961403550835 cluster_build_rule=nearest_complete_covalent_fragments max_atoms_rule=reject_not_truncate_fragments charge=0 spin=1 event_id=6 event_frame=25713 frames_before_event=3 h2_definition=mutual_nearest_neighbor_HH_not_O_N_S event_h2_distance_A=0.9151388361219385 cluster_id=54 pbc="F F F"
O       13.94664447      10.63297970      13.29939151
O       11.01889822      12.94647824      11.49584187
H       14.05641338      10.05347547      14.05007242
O       13.06678544      13.10420895      13.26113565
O       12.63200955      11.17167726      11.55941011
H       11.12368073      12.01003804      11.85760476
H       10.14085287      12.91485564      10.99954028
H       12.37622261      13.71803904      13.37542240
H       13.38195769      11.51302068      13.49838170
H       13.76159450      13.57097079      13.69858375
H       12.87631927      11.98996196      12.14239524
11
Lattice="24.0 0.0 0.0 0.0 24.0 0.0 0.0 0.0 24.0" Properties=species:S:1:pos:R:3 sample_kind=h2_formation source_xyz=/home/kevinsh/mlip/outputsfull/temperature_ramp/r09_hot_w/temperature_ramp_seed_525385756_from_pressure_equil_seed_353168294_P_15GPa_T_300K_density_0.2_P_15GPa_300K_to_2340K.xyz source_frame=25709 source_time_ps=139.275 seed_atoms=167,250 seed_distance_A=2.0138814923566275 h2_present_current_frame=F environment_radius_A=3.3684597427839034 cluster_build_rule=nearest_complete_covalent_fragments max_atoms_rule=reject_not_truncate_fragments charge=0 spin=1 event_id=6 event_frame=25713 frames_before_event=4 h2_definition=mutual_nearest_neighbor_HH_not_O_N_S event_h2_distance_A=0.9151388361219385 cluster_id=55 pbc="F F F"
O       13.85838622      10.66134762      13.20815139
O       10.98784788      12.94793386      11.38794126
H       13.89722756      10.04673436      13.98287719
O       13.01337868      13.13107784      13.18876856
O       12.61321251      11.16861896      11.46317044
H       11.00739685      12.13860483      11.90275107
H       10.21748500      13.29746630      10.77159933
H       12.12840124      13.68927118      13.27715093
H       13.20736389      11.49252193      13.39098135
H       13.72738810      13.86659019      13.55100122
H       12.99260315      11.86139517      12.09724893
11
Lattice="24.0 0.0 0.0 0.0 24.0 0.0 0.0 0.0 24.0" Properties=species:S:1:pos:R:3 sample_kind=h2_formation source_xyz=/home/kevinsh/mlip/outputsfull/temperature_ramp/r09_hot_w/temperature_ramp_seed_525385756_from_pressure_equil_seed_353168294_P_15GPa_T_300K_density_0.2_P_15GPa_300K_to_2340K.xyz source_frame=25708 source_time_ps=139.2725 seed_atoms=167,250 seed_distance_A=2.237779097634609 h2_present_current_frame=F environment_radius_A=3.2297759397177677 cluster_build_rule=nearest_complete_covalent_fragments max_atoms_rule=reject_not_truncate_fragments charge=0 spin=1 event_id=6 event_frame=25713 frames_before_event=5 h2_definition=mutual_nearest_neighbor_HH_not_O_N_S event_h2_distance_A=0.9151388361219385 cluster_id=56 pbc="F F F"
O       13.81589069      10.73275167      13.22391555
O       10.99572897      12.99383635      11.36512231
H       13.76764567      10.13343582      13.95520321
O       13.00742272      13.20192681      13.21444236
O       12.63560304      11.19778409      11.45740934
H       10.91394009      12.26904959      12.00002733
H       10.45948046      13.61037240      10.75670127
H       12.02414641      13.62160672      13.24518952
H       13.16757228      11.34037080      13.40782438
H       13.63249882      13.96586586      13.37981184
H       13.08605991      11.73095041      11.99997267
11
Lattice="24.0 0.0 0.0 0.0 24.0 0.0 0.0 0.0 24.0" Properties=species:S:1:pos:R:3 sample_kind=h2_formation source_xyz=/home/kevinsh/mlip/outputsfull/temperature_ramp/r09_hot_w/temperature_ramp_seed_525385756_from_pressure_equil_seed_353168294_P_15GPa_T_300K_density_0.2_P_15GPa_300K_to_2340K.xyz source_frame=25707 source_time_ps=139.27 seed_atoms=167,250 seed_distance_A=2.547219933393315 h2_present_current_frame=F environment_radius_A=3.1781020746458584 cluster_build_rule=nearest_complete_covalent_fragments max_atoms_rule=reject_not_truncate_fragments charge=0 spin=1 event_id=6 event_frame=25713 frames_before_event=6 h2_definition=mutual_nearest_neighbor_HH_not_O_N_S event_h2_distance_A=0.9151388361219385 cluster_id=57 pbc="F F F"
O       13.77962052      10.71046808      13.24066819
O       10.99805278      12.95708287      11.32677099
H       13.64310388      10.09134833      13.93845073
O       12.98737797      13.18354236      13.23380694
O       12.64024196      11.12346142      11.42717783
H       10.76638180      12.31428219      12.03866751
H       10.70154539      13.71741028      10.84434378
H       12.08399298      13.41269578      13.18312996
H       12.99069828      11.20316325      13.47438878
H       13.49837800      13.87960726      13.11846669
H       13.23361820      11.68571781      11.96133249
11
Lattice="24.0 0.0 0.0 0.0 24.0 0.0 0.0 0.0 24.0" Properties=species:S:1:pos:R:3 sample_kind=h2_formation source_xyz=/home/kevinsh/mlip/outputsfull/temperature_ramp/r09_hot_w/temperature_ramp_seed_525385756_from_pressure_equil_seed_353168294_P_15GPa_T_300K_density_0.2_P_15GPa_300K_to_2340K.xyz source_frame=25706 source_time_ps=139.2675 seed_atoms=167,250 seed_distance_A=2.817507358390209 h2_present_current_frame=F environment_radius_A=3.3034044559507785 cluster_build_rule=nearest_complete_covalent_fragments max_atoms_rule=reject_not_truncate_fragments charge=0 spin=1 event_id=6 event_frame=25713 frames_before_event=7 h2_definition=mutual_nearest_neighbor_HH_not_O_N_S event_h2_distance_A=0.9151388361219385 cluster_id=58 pbc="F F F"
O       13.80301864      10.63416707      13.31973281
O       11.06161549      12.86310970      11.33585942
H       13.62374545       9.92838057      13.99607731
O       13.02133256      13.09402524      13.30607246
O       12.70011740      10.99215183      11.43951355
H       10.64489726      12.38016075      12.06132940
H       10.92450019      13.77263368      11.02980976
H       12.11924544      13.19893751      13.13654135
H       12.83542948      11.09168648      13.57205181
H       13.53639181      13.90324586      12.84401081
H       13.35510274      11.61983925      11.93867060
11
Lattice="24.0 0.0 0.0 0.0 24.0 0.0 0.0 0.0 24.0" Properties=species:S:1:pos:R:3 sample_kind=h2_formation source_xyz=/home/kevinsh/mlip/outputsfull/temperature_ramp/r09_hot_w/temperature_ramp_seed_525385756_from_pressure_equil_seed_353168294_P_15GPa_T_300K_density_0.2_P_15GPa_300K_to_2340K.xyz source_frame=25705 source_time_ps=139.265 seed_atoms=167,250 seed_distance_A=2.9870763217962337 h2_present_current_frame=F environment_radius_A=3.4912183620959985 cluster_build_rule=nearest_complete_covalent_fragments max_atoms_rule=reject_not_truncate_fragments charge=0 spin=1 event_id=6 event_frame=25713 frames_before_event=8 h2_definition=mutual_nearest_neighbor_HH_not_O_N_S event_h2_distance_A=0.9151388361219385 cluster_id=59 pbc="F F F"
O       13.90921283      10.55615312      13.46093850
O       11.22441699      12.76541545      11.38364201
H       13.77207996       9.78885957      14.03941077
O       13.16438506      13.00536907      13.41804862
O       12.86367553      10.86115189      11.49163035
H       10.60034492      12.51071458      12.10388696
H       11.20153270      13.79983462      11.30487990
H       12.15638293      13.02826933      13.09901408
H       12.98009614      10.94101637      13.62513892
H       13.57015969      13.78106200      12.66786461
H       13.39965509      11.48928542      11.89611304
11
Lattice="24.0 0.0 0.0 0.0 24.0 0.0 0.0 0.0 24.0" Properties=species:S:1:pos:R:3 sample_kind=h2_formation source_xyz=/home/kevinsh/mlip/outputsfull/temperature_ramp/r09_hot_w/temperature_ramp_seed_525385756_from_pressure_equil_seed_353168294_P_15GPa_T_300K_density_0.2_P_15GPa_300K_to_2340K.xyz source_frame=25704 source_time_ps=139.2625 seed_atoms=167,250 seed_distance_A=3.08726406558767 h2_present_current_frame=F environment_radius_A=3.7307330009343715 cluster_build_rule=nearest_complete_covalent_fragments max_atoms_rule=reject_not_truncate_fragments charge=0 spin=1 event_id=6 event_frame=25713 frames_before_event=9 h2_definition=mutual_nearest_neighbor_HH_not_O_N_S event_h2_distance_A=0.9151388361219385 cluster_id=60 pbc="F F F"
O       14.00625882      10.41190430      13.59410934
O       11.38122733      12.61286611      11.41391248
H       13.97366942       9.58226931      14.04391194
O       13.30023881      12.86269683      13.49616078
O       13.02670562      10.65932524      11.51396856
H       10.57717958      12.59334761      12.07950171
H       11.47911382      13.61995570      11.55715763
H       12.36620230      12.78705812      13.09391940
H       13.20207172      10.76117007      13.61392589
H       13.50875043      13.39396666      12.63834264
H       13.42282042      11.40665239      11.92049829
12
Lattice="24.0 0.0 0.0 0.0 24.0 0.0 0.0 0.0 24.0" Properties=species:S:1:pos:R:3 sample_kind=h2_formation source_xyz=/home/kevinsh/mlip/outputsfull/temperature_ramp/r09_hot_w/temperature_ramp_seed_525385756_from_pressure_equil_seed_353168294_P_15GPa_T_300K_density_0.2_P_15GPa_300K_to_2340K.xyz source_frame=25808 source_time_ps=139.5225 seed_atoms=169,266 seed_distance_A=0.9840764200813364 h2_present_current_frame=T environment_radius_A=3.517346432183695 cluster_build_rule=nearest_complete_covalent_fragments max_atoms_rule=reject_not_truncate_fragments charge=0 spin=1 event_id=7 event_frame=25808 frames_before_event=0 h2_definition=mutual_nearest_neighbor_HH_not_O_N_S event_h2_distance_A=0.9840764200813364 cluster_id=61 pbc="F F F"
O       12.83135367      11.93361309      11.72555311
H       11.95861205      13.20900145      10.22304534
H       10.91038844      11.03847857      13.61656615
H        8.84219367      12.16948610      10.46011053
O       11.00511313      11.95954735      13.21058402
H       10.46207239      12.70393693      13.20526315
O        9.64963155      11.68625962      10.30915498
H       12.15961900      11.97157590      12.46455941
H       10.25549632      11.75653774      11.04411183
H       10.79326896      14.15744846      10.08086788
H       11.84038100      12.02842410      11.53544059
O       11.48847093      13.79558326       9.65056621
12
Lattice="24.0 0.0 0.0 0.0 24.0 0.0 0.0 0.0 24.0" Properties=species:S:1:pos:R:3 sample_kind=h2_formation source_xyz=/home/kevinsh/mlip/outputsfull/temperature_ramp/r09_hot_w/temperature_ramp_seed_525385756_from_pressure_equil_seed_353168294_P_15GPa_T_300K_density_0.2_P_15GPa_300K_to_2340K.xyz source_frame=25807 source_time_ps=139.52 seed_atoms=169,266 seed_distance_A=1.067888568821496 h2_present_current_frame=F environment_radius_A=3.5671282805616307 cluster_build_rule=nearest_complete_covalent_fragments max_atoms_rule=reject_not_truncate_fragments charge=0 spin=1 event_id=7 event_frame=25808 frames_before_event=1 h2_definition=mutual_nearest_neighbor_HH_not_O_N_S event_h2_distance_A=0.9840764200813364 cluster_id=62 pbc="F F F"
O       12.83935517      11.97846094      11.66594929
H       11.78612639      13.39055223      10.29515068
H       10.96276243      11.18576043      13.63040853
H        8.79877226      12.24520215      10.44551584
O       10.98665080      12.02206547      13.18894801
H       10.50334441      12.82544305      13.33883692
O        9.62971072      11.75502946      10.23670636
H       12.11252368      12.01132724      12.52183006
H       10.26118227      11.70537421      10.97789638
H       10.64030044      14.38478344      10.18946234
H       11.88747632      11.98867276      11.47816994
O       11.45077408      13.84381162       9.59926738
12
Lattice="24.0 0.0 0.0 0.0 24.0 0.0 0.0 0.0 24.0" Properties=species:S:1:pos:R:3 sample_kind=h2_formation source_xyz=/home/kevinsh/mlip/outputsfull/temperature_ramp/r09_hot_w/temperature_ramp_seed_525385756_from_pressure_equil_seed_353168294_P_15GPa_T_300K_density_0.2_P_15GPa_300K_to_2340K.xyz source_frame=25806 source_time_ps=139.5175 seed_atoms=169,266 seed_distance_A=1.4264468050975094 h2_present_current_frame=F environment_radius_A=3.3393279402474723 cluster_build_rule=nearest_complete_covalent_fragments max_atoms_rule=reject_not_truncate_fragments charge=0 spin=1 event_id=7 event_frame=25808 frames_before_event=2 h2_definition=mutual_nearest_neighbor_HH_not_O_N_S event_h2_distance_A=0.9840764200813364 cluster_id=63 pbc="F F F"
H       13.31113327       9.83755916      14.06072555
O       12.41794251       9.91305106      13.65819288
O       12.77128899      12.01574670      11.65215246
H       11.68650623      13.45044945      10.56413052
H       10.90643452      11.30672396      13.77424564
O       10.90113001      12.07473087      13.19711303
H       10.43276213      12.94167713      13.56532863
H       12.10710675      12.07093518      12.70155824
H       12.30731675      10.01286962      12.67256002
H       10.62826935      14.46409947      10.21179422
H       11.89289325      11.92906482      11.29844176
O       11.32816787      13.90628670       9.59141673
12
Lattice="24.0 0.0 0.0 0.0 24.0 0.0 0.0 0.0 24.0" Properties=species:S:1:pos:R:3 sample_kind=h2_formation source_xyz=/home/kevinsh/mlip/outputsfull/temperature_ramp/r09_hot_w/temperature_ramp_seed_525385756_from_pressure_equil_seed_353168294_P_15GPa_T_300K_density_0.2_P_15GPa_300K_to_2340K.xyz source_frame=25805 source_time_ps=139.515 seed_atoms=169,266 seed_distance_A=1.7716977310745512 h2_present_current_frame=F environment_radius_A=3.8041259796064155 cluster_build_rule=nearest_complete_covalent_fragments max_atoms_rule=reject_not_truncate_fragments charge=0 spin=1 event_id=7 event_frame=25808 frames_before_event=3 h2_definition=mutual_nearest_neighbor_HH_not_O_N_S event_h2_distance_A=0.9840764200813364 cluster_id=64 pbc="F F F"
H       13.06072566      10.01868222      14.05913051
O       12.26454004       9.92208131      13.75294605
O       12.67451839      12.05019559      11.73421797
H       10.80155580      11.42410383      14.05105583
H       13.98167398      11.79541981      12.65155443
O       10.79066996      12.12960819      13.28500826
H       10.39482753      12.88933759      13.85931548
H       12.11515118      12.15610534      12.86434920
H       15.56154846      11.85636341      13.32895281
H       12.28633808      10.14888570      12.84422751
O       14.93660859      11.54682656      12.64947741
H       11.88484882      11.84389466      11.13565080
12
Lattice="24.0 0.0 0.0 0.0 24.0 0.0 0.0 0.0 24.0" Properties=species:S:1:pos:R:3 sample_kind=h2_formation source_xyz=/home/kevinsh/mlip/outputsfull/temperature_ramp/r09_hot_w/temperature_ramp_seed_525385756_from_pressure_equil_seed_353168294_P_15GPa_T_300K_density_0.2_P_15GPa_300K_to_2340K.xyz source_frame=25804 source_time_ps=139.5125 seed_atoms=169,266 seed_distance_A=1.8383627984982729 h2_present_current_frame=F environment_radius_A=3.6054623311515583 cluster_build_rule=nearest_complete_covalent_fragments max_atoms_rule=reject_not_truncate_fragments charge=0 spin=1 event_id=7 event_frame=25808 frames_before_event=4 h2_definition=mutual_nearest_neighbor_HH_not_O_N_S event_h2_distance_A=0.9840764200813364 cluster_id=65 pbc="F F F"
H       13.07040317      10.20324412      14.22863708
O       12.06101376       9.92496524      13.91011969
O       12.53728875      12.07911747      11.89542540
H       10.66603935      11.59249016      14.28574833
H       13.88770459      11.80251847      12.86037458
O       10.64893814      12.17512813      13.45085245
H       10.34682694      12.73937447      14.14376698
H       12.05613434      12.23372476      12.88719565
H       15.27955522      11.91863708      13.49574606
H       12.22403077      10.28513734      13.03456086
O       14.79572305      11.53733155      12.79395743
H       11.94386566      11.76627523      11.11280435
12
Lattice="24.0 0.0 0.0 0.0 24.0 0.0 0.0 0.0 24.0" Properties=species:S:1:pos:R:3 sample_kind=h2_formation source_xyz=/home/kevinsh/mlip/outputsfull/temperature_ramp/r09_hot_w/temperature_ramp_seed_525385756_from_pressure_equil_seed_353168294_P_15GPa_T_300K_density_0.2_P_15GPa_300K_to_2340K.xyz source_frame=25803 source_time_ps=139.51 seed_atoms=169,266 seed_distance_A=1.6404464134159045 h2_present_current_frame=F environment_radius_A=3.5015820717435493 cluster_build_rule=nearest_complete_covalent_fragments max_atoms_rule=reject_not_truncate_fragments charge=0 spin=1 event_id=7 event_frame=25808 frames_before_event=5 h2_definition=mutual_nearest_neighbor_HH_not_O_N_S event_h2_distance_A=0.9840764200813364 cluster_id=66 pbc="F F F"
H       12.92945074      10.27872898      14.38859514
O       11.87655070       9.92277584      14.07787340
O       12.40148638      12.09597068      12.06918638
H       13.76549314      11.80326284      13.05020965
H       11.92729362      12.26862065      12.77157167
H       15.05223170      12.03527135      13.71572567
H       12.11087257      10.38052173      13.20700512
H       12.88238406      10.29240926      11.58423563
H       12.87403784       9.52414999      10.42090787
O       13.04552982       9.26720920      11.29295927
O       14.66028339      11.51250554      12.94850459
H       12.07270638      11.73137934      11.22842833
17
Lattice="24.0 0.0 0.0 0.0 24.0 0.0 0.0 0.0 24.0" Properties=species:S:1:pos:R:3 sample_kind=h2_formation source_xyz=/home/kevinsh/mlip/outputsfull/temperature_ramp/r09_hot_w/temperature_ramp_seed_525385756_from_pressure_equil_seed_353168294_P_15GPa_T_300K_density_0.2_P_15GPa_300K_to_2340K.xyz source_frame=25802 source_time_ps=139.5075 seed_atoms=169,266 seed_distance_A=1.726871906072198 h2_present_current_frame=F environment_radius_A=5.028263139840202 cluster_build_rule=nearest_complete_covalent_fragments max_atoms_rule=reject_not_truncate_fragments charge=0 spin=1 event_id=7 event_frame=25808 frames_before_event=6 h2_definition=mutual_nearest_neighbor_HH_not_O_N_S event_h2_distance_A=0.9840764200813364 cluster_id=67 pbc="F F F"
O       12.43433571      12.07756269      12.10738825
H        7.71286253      12.85097069      12.88277079
O        7.42226179      13.75815131      13.11204636
O       12.00807384      14.47037236      13.47774669
H       13.74235646      11.75877467      13.07208864
H        9.50583575      14.31021121      14.02279955
H       10.74821397      14.45145798      13.23352595
H       11.95650358      13.92994970      12.73113532
H       11.67695210      12.29158829      12.74574658
H       15.00831389      12.08380960      13.74744865
H        8.30329545      14.35239773      12.96180504
H       12.91271586      10.24534296      11.61204028
H       12.89021315       9.28541098      10.41525868
O       13.06217649       9.31032054      11.34486744
O        9.56880158      14.72719481      13.13379981
O       14.68177674      11.45816971      12.99103447
H       12.32304790      11.70841171      11.25425342
11
Lattice="24.0 0.0 0.0 0.0 24.0 0.0 0.0 0.0 24.0" Properties=species:S:1:pos:R:3 sample_kind=h2_formation source_xyz=/home/kevinsh/mlip/outputsfull/temperature_ramp/r09_hot_w/temperature_ramp_seed_525385756_from_pressure_equil_seed_353168294_P_15GPa_T_300K_density_0.2_P_15GPa_300K_to_2340K.xyz source_frame=25801 source_time_ps=139.505 seed_atoms=169,266 seed_distance_A=2.019650586996265 h2_present_current_frame=F environment_radius_A=3.4880685772050404 cluster_build_rule=nearest_complete_covalent_fragments max_atoms_rule=reject_not_truncate_fragments charge=0 spin=1 event_id=7 event_frame=25808 frames_before_event=7 h2_definition=mutual_nearest_neighbor_HH_not_O_N_S event_h2_distance_A=0.9840764200813364 cluster_id=68 pbc="F F F"
O       12.53692668      12.07600861      12.15062332
H       10.91235593      11.32503155      14.31690066
O       12.12828187      14.48745332      13.51931343
O       10.62315956      12.19342132      13.75751005
H       10.29142804      12.84263271      14.48182157
H       11.87051282      13.80403924      12.71679162
H       11.41162786      12.28578633      12.76934487
H       12.99877393      10.18728384      11.64489078
H       12.97985796       9.09330982      10.33938175
O       13.14640826       9.36779609      11.40045573
H       12.58837214      11.71421367      11.23065513
11
Lattice="24.0 0.0 0.0 0.0 24.0 0.0 0.0 0.0 24.0" Properties=species:S:1:pos:R:3 sample_kind=h2_formation source_xyz=/home/kevinsh/mlip/outputsfull/temperature_ramp/r09_hot_w/temperature_ramp_seed_525385756_from_pressure_equil_seed_353168294_P_15GPa_T_300K_density_0.2_P_15GPa_300K_to_2340K.xyz source_frame=25800 source_time_ps=139.5025 seed_atoms=169,266 seed_distance_A=2.2795440800324425 h2_present_current_frame=F environment_radius_A=3.518101123427917 cluster_build_rule=nearest_complete_covalent_fragments max_atoms_rule=reject_not_truncate_fragments charge=0 spin=1 event_id=7 event_frame=25808 frames_before_event=8 h2_definition=mutual_nearest_neighbor_HH_not_O_N_S event_h2_distance_A=0.9840764200813364 cluster_id=69 pbc="F F F"
O       12.59766397      12.08009740      12.17157174
H       11.06465766      11.25601183      14.12378448
O       12.20392631      14.49957355      13.51120998
O       10.68254691      12.19045677      13.79856034
H       10.33052924      12.86065281      14.37687672
H       11.86792761      13.82572771      12.84446364
H       11.19299741      12.22808280      12.77188429
H       12.98976903      10.38016479      11.67179459
H       13.08781111       9.02812742      10.46322549
O       13.20135062       9.40611359      11.41137530
H       12.80700259      11.77191720      11.22811571
11
Lattice="24.0 0.0 0.0 0.0 24.0 0.0 0.0 0.0 24.0" Properties=species:S:1:pos:R:3 sample_kind=h2_formation source_xyz=/home/kevinsh/mlip/outputsfull/temperature_ramp/r09_hot_w/temperature_ramp_seed_525385756_from_pressure_equil_seed_353168294_P_15GPa_T_300K_density_0.2_P_15GPa_300K_to_2340K.xyz source_frame=25799 source_time_ps=139.5 seed_atoms=169,266 seed_distance_A=2.5760836452948093 h2_present_current_frame=F environment_radius_A=3.506275311737855 cluster_build_rule=nearest_complete_covalent_fragments max_atoms_rule=reject_not_truncate_fragments charge=0 spin=1 event_id=7 event_frame=25808 frames_before_event=9 h2_definition=mutual_nearest_neighbor_HH_not_O_N_S event_h2_distance_A=0.9840764200813364 cluster_id=70 pbc="F F F"
O       12.64392214      12.03343275      12.11265627
H       11.17137456      11.24487259      13.90219991
O       12.26420892      14.46206921      13.41070789
O       10.74192346      12.12455975      13.74581733
H       10.33711504      12.84103630      14.24991975
H       11.91249534      13.83488175      12.93752185
H       10.98887304      12.14774011      12.78412172
H       12.97778382      10.40878872      11.53252707
H       13.20892991       9.03113407      10.57933461
O       13.24852900       9.39568564      11.34293730
H       13.01112696      11.85225989      11.21587828
12
Lattice="24.0 0.0 0.0 0.0 24.0 0.0 0.0 0.0 24.0" Properties=species:S:1:pos:R:3 sample_kind=h2_formation source_xyz=/home/kevinsh/mlip/outputsfull/temperature_ramp/r09_hot_w/temperature_ramp_seed_525385756_from_pressure_equil_seed_353168294_P_15GPa_T_300K_density_0.2_P_15GPa_300K_to_2340K.xyz source_frame=25858 source_time_ps=139.6475 seed_atoms=11,167 seed_distance_A=0.9723208370472437 h2_present_current_frame=T environment_radius_A=3.450612106502946 cluster_build_rule=nearest_complete_covalent_fragments max_atoms_rule=reject_not_truncate_fragments charge=0 spin=1 event_id=8 event_frame=25858 frames_before_event=0 h2_definition=mutual_nearest_neighbor_HH_not_O_N_S event_h2_distance_A=0.9723208370472437 cluster_id=71 pbc="F F F"
H       12.01149097      11.52216344      11.91116235
H       14.89799767      13.56186330      12.33283072
H       13.78901752      11.62542770      11.24838815
H       15.25131402      11.86110227      10.85266027
H       11.98850903      12.47783657      12.08883765
H       11.67469636      11.59425006      10.45458310
O       10.82998788      11.55715029      10.70774001
O       12.31929357      11.86485736      12.78031780
O       14.33167680      13.51630723      13.12101759
O       14.50460458      11.16420901      10.90519863
H       13.52477087      13.06459258      12.82287751
H       10.39384910      10.92591525       9.89291702
12
Lattice="24.0 0.0 0.0 0.0 24.0 0.0 0.0 0.0 24.0" Properties=species:S:1:pos:R:3 sample_kind=h2_formation source_xyz=/home/kevinsh/mlip/outputsfull/temperature_ramp/r09_hot_w/temperature_ramp_seed_525385756_from_pressure_equil_seed_353168294_P_15GPa_T_300K_density_0.2_P_15GPa_300K_to_2340K.xyz source_frame=25857 source_time_ps=139.645 seed_atoms=11,167 seed_distance_A=1.360266916184691 h2_present_current_frame=F environment_radius_A=3.3204528509246476 cluster_build_rule=nearest_complete_covalent_fragments max_atoms_rule=reject_not_truncate_fragments charge=0 spin=1 event_id=8 event_frame=25858 frames_before_event=1 h2_definition=mutual_nearest_neighbor_HH_not_O_N_S event_h2_distance_A=0.9723208370472437 cluster_id=72 pbc="F F F"
H       11.88340056      11.35456150      11.82001324
H       14.66523615      13.50406769      12.19442667
H       13.61621096      11.52354277      11.25171493
H       15.11189640      11.78971673      10.86101410
H       12.11659944      12.64543850      12.17998676
H       11.62603659      11.48422607      10.12728643
O       10.71068556      11.51116731      10.62669397
O       12.18405682      11.78404786      12.67828197
O       14.19310100      13.47220229      12.98638903
O       14.39422647      11.03897455      10.79842696
H       13.26789488      13.08182794      12.85310229
H       10.40566262      10.94521375       9.86384587
15
Lattice="24.0 0.0 0.0 0.0 24.0 0.0 0.0 0.0 24.0" Properties=species:S:1:pos:R:3 sample_kind=h2_formation source_xyz=/home/kevinsh/mlip/outputsfull/temperature_ramp/r09_hot_w/temperature_ramp_seed_525385756_from_pressure_equil_seed_353168294_P_15GPa_T_300K_density_0.2_P_15GPa_300K_to_2340K.xyz source_frame=25856 source_time_ps=139.6425 seed_atoms=11,167 seed_distance_A=1.8010654020513317 h2_present_current_frame=F environment_radius_A=3.8991141493606913 cluster_build_rule=nearest_complete_covalent_fragments max_atoms_rule=reject_not_truncate_fragments charge=0 spin=1 event_id=8 event_frame=25858 frames_before_event=2 h2_definition=mutual_nearest_neighbor_HH_not_O_N_S event_h2_distance_A=0.9723208370472437 cluster_id=73 pbc="F F F"
H       11.76539475      11.16752667      11.74918597
H       14.50828168      13.42393518      11.96539518
H       13.55531392      11.39606558      11.15539516
O       12.26489794      10.76609575       8.87984454
H       14.92091676      11.65731052      10.78612044
H       12.23460525      12.83247333      12.25081403
H       11.59089759      11.40893896       9.75580441
O       10.62782634      11.50796703      10.47891046
O       12.08125199      11.75499089      12.49866899
O       14.08507927      13.47417854      12.79578842
H       12.47794483      11.60490224       8.44971128
O       14.31920092      10.97883117      10.64726791
H       13.20187607      13.14638207      12.86570347
H       11.59844843      10.04809846       8.64859315
H       10.41758310      11.02413788       9.78798395
12
Lattice="24.0 0.0 0.0 0.0 24.0 0.0 0.0 0.0 24.0" Properties=species:S:1:pos:R:3 sample_kind=h2_formation source_xyz=/home/kevinsh/mlip/outputsfull/temperature_ramp/r09_hot_w/temperature_ramp_seed_525385756_from_pressure_equil_seed_353168294_P_15GPa_T_300K_density_0.2_P_15GPa_300K_to_2340K.xyz source_frame=25855 source_time_ps=139.64 seed_atoms=11,167 seed_distance_A=1.8779689821779864 h2_present_current_frame=F environment_radius_A=5.159034686104649 cluster_build_rule=nearest_complete_covalent_fragments max_atoms_rule=reject_not_truncate_fragments charge=0 spin=1 event_id=8 event_frame=25858 frames_before_event=3 h2_definition=mutual_nearest_neighbor_HH_not_O_N_S event_h2_distance_A=0.9723208370472437 cluster_id=74 pbc="F F F"
H       11.69621122      11.15834523      11.71535724
H       14.44105831      13.37486270      11.71943131
H       14.19921586      10.34217367       9.41419185
H       13.58785293      11.29499498      11.04793055
H       14.93160612      11.69410225      10.71685754
H       12.30378878      12.84165477      12.28464276
H       15.48494037      10.57074399       8.47465508
O       14.69384989       9.96779877       8.66592966
O       12.05192412      11.82566162      12.33065365
O       14.05576524      13.56850392      12.63246941
O       14.30514480      11.01533964      10.53260561
H       13.25519546      13.24861036      12.92653623
12
Lattice="24.0 0.0 0.0 0.0 24.0 0.0 0.0 0.0 24.0" Properties=species:S:1:pos:R:3 sample_kind=h2_formation source_xyz=/home/kevinsh/mlip/outputsfull/temperature_ramp/r09_hot_w/temperature_ramp_seed_525385756_from_pressure_equil_seed_353168294_P_15GPa_T_300K_density_0.2_P_15GPa_300K_to_2340K.xyz source_frame=25854 source_time_ps=139.6375 seed_atoms=11,167 seed_distance_A=1.6895765660634787 h2_present_current_frame=F environment_radius_A=4.001089410469761 cluster_build_rule=nearest_complete_covalent_fragments max_atoms_rule=reject_not_truncate_fragments charge=0 spin=1 event_id=8 event_frame=25858 frames_before_event=4 h2_definition=mutual_nearest_neighbor_HH_not_O_N_S event_h2_distance_A=0.9723208370472437 cluster_id=75 pbc="F F F"
H       11.66571702      11.27745321      11.71742563
H       13.57042653      11.23755946      11.09022689
O       12.47223831      10.99117527       8.60217763
H       15.09833650      11.80428758      10.72925014
H       12.33428298      12.72254679      12.28257437
H       11.64735745      11.46192276       9.46435567
O       10.70340666      11.71232920      10.30464406
O       12.09373366      11.93324164      12.25976485
H       12.49375556      11.88920484       8.15006435
O       14.35969612      11.09068800      10.52292695
H       11.56919039      10.48533936       8.32183161
H       10.26196084      11.12829181       9.49965949
12
Lattice="24.0 0.0 0.0 0.0 24.0 0.0 0.0 0.0 24.0" Properties=species:S:1:pos:R:3 sample_kind=h2_formation source_xyz=/home/kevinsh/mlip/outputsfull/temperature_ramp/r09_hot_w/temperature_ramp_seed_525385756_from_pressure_equil_seed_353168294_P_15GPa_T_300K_density_0.2_P_15GPa_300K_to_2340K.xyz source_frame=25853 source_time_ps=139.635 seed_atoms=11,167 seed_distance_A=1.8135384424616967 h2_present_current_frame=F environment_radius_A=3.762517005955446 cluster_build_rule=nearest_complete_covalent_fragments max_atoms_rule=reject_not_truncate_fragments charge=0 spin=1 event_id=8 event_frame=25858 frames_before_event=5 h2_definition=mutual_nearest_neighbor_HH_not_O_N_S event_h2_distance_A=0.9723208370472437 cluster_id=76 pbc="F F F"
H       11.58304016      11.24057126      11.73233809
H       13.55476828      10.98113099      11.22763869
H        8.67722323      10.42107501      12.78910366
H       15.15152915      11.58928726      10.82560055
H        9.79938966      11.39199684      11.75003210
H       12.41695984      12.75942874      12.26766191
O        9.45676228      11.23734540      12.66293688
H       11.67443732      11.32595050       9.67536348
O       10.76950040      11.59857054      10.33757389
O       12.12181205      11.80014312      12.29897715
O       14.40993368      10.96564291      10.62785636
H       10.21035104      11.12316300       9.73551727
12
Lattice="24.0 0.0 0.0 0.0 24.0 0.0 0.0 0.0 24.0" Properties=species:S:1:pos:R:3 sample_kind=h2_formation source_xyz=/home/kevinsh/mlip/outputsfull/temperature_ramp/r09_hot_w/temperature_ramp_seed_525385756_from_pressure_equil_seed_353168294_P_15GPa_T_300K_density_0.2_P_15GPa_300K_to_2340K.xyz source_frame=25852 source_time_ps=139.6325 seed_atoms=11,167 seed_distance_A=1.8308142862635735 h2_present_current_frame=F environment_radius_A=3.6436006065215163 cluster_build_rule=nearest_complete_covalent_fragments max_atoms_rule=reject_not_truncate_fragments charge=0 spin=1 event_id=8 event_frame=25858 frames_before_event=6 h2_definition=mutual_nearest_neighbor_HH_not_O_N_S event_h2_distance_A=0.9723208370472437 cluster_id=77 pbc="F F F"
H       11.52561986      11.25375971      11.76323187
H       13.69392491      10.73454296      11.36825478
H        8.82736722      10.43670548      12.87540666
H       15.19804995      11.34553208      11.02569556
H       10.01987408      11.19582872      11.94137132
H       12.47438014      12.74624029      12.23676813
O        9.54744184      11.06506419      12.80981885
H       11.67747625      11.20431382      10.07103694
O       10.87627974      11.46397594      10.43549249
O       12.18602912      11.65048652      12.41748181
O       14.48686884      10.83070243      10.81578242
H       10.13459375      11.07135244      10.01669279
12
Lattice="24.0 0.0 0.0 0.0 24.0 0.0 0.0 0.0 24.0" Properties=species:S:1:pos:R:3 sample_kind=h2_formation source_xyz=/home/kevinsh/mlip/outputsfull/temperature_ramp/r09_hot_w/temperature_ramp_seed_525385756_from_pressure_equil_seed_353168294_P_15GPa_T_300K_density_0.2_P_15GPa_300K_to_2340K.xyz source_frame=25851 source_time_ps=139.63 seed_atoms=11,167 seed_distance_A=1.4694817290374007 h2_present_current_frame=F environment_radius_A=3.508819524176149 cluster_build_rule=nearest_complete_covalent_fragments max_atoms_rule=reject_not_truncate_fragments charge=0 spin=1 event_id=8 event_frame=25858 frames_before_event=7 h2_definition=mutual_nearest_neighbor_HH_not_O_N_S event_h2_distance_A=0.9723208370472437 cluster_id=78 pbc="F F F"
H       11.56404059      11.43581970      11.82256235
H       14.17029871      12.67484627      12.27161073
H        8.96203106      10.47267916      12.86593892
H       10.16716291      11.06057719      12.15181852
H       12.43595941      12.56418030      12.17743765
O        9.65343886      10.99266178      12.93127048
H       11.84261136      11.07654865      10.32960209
O       10.98257405      11.42782275      10.51770671
O       12.26270531      11.60833996      12.51213920
O       14.31421211      13.49255962      12.84061548
H       14.45354500      12.89378655      13.62789674
H       10.07084683      11.04836129      10.18648605
12
Lattice="24.0 0.0 0.0 0.0 24.0 0.0 0.0 0.0 24.0" Properties=species:S:1:pos:R:3 sample_kind=h2_formation source_xyz=/home/kevinsh/mlip/outputsfull/temperature_ramp/r09_hot_w/temperature_ramp_seed_525385756_from_pressure_equil_seed_353168294_P_15GPa_T_300K_density_0.2_P_15GPa_300K_to_2340K.xyz source_frame=25850 source_time_ps=139.6275 seed_atoms=11,167 seed_distance_A=1.0770626650920656 h2_present_current_frame=F environment_radius_A=3.740184969490308 cluster_build_rule=nearest_complete_covalent_fragments max_atoms_rule=reject_not_truncate_fragments charge=0 spin=1 event_id=8 event_frame=25858 frames_before_event=8 h2_definition=mutual_nearest_neighbor_HH_not_O_N_S event_h2_distance_A=0.9723208370472437 cluster_id=79 pbc="F F F"
H       11.61980611      11.63487055      11.88977712
H        8.88991848      10.33500139      12.75960458
H       10.83579298      13.79613194      11.28586645
O        9.81028863      13.54609462      11.18475386
H       10.29396400      10.94590520      12.24227431
H       12.38019389      12.36512945      12.11022288
H        9.27350877      14.31926226      10.91544859
O        9.75371760      10.97238324      13.00754619
H       12.05082371      10.87121594      10.39438470
O       11.05646181      11.43170691      10.55409393
O       12.32211950      11.61273841      12.55615785
H       10.18794606      11.06721176      10.28900142
12
Lattice="24.0 0.0 0.0 0.0 24.0 0.0 0.0 0.0 24.0" Properties=species:S:1:pos:R:3 sample_kind=h2_formation source_xyz=/home/kevinsh/mlip/outputsfull/temperature_ramp/r09_hot_w/temperature_ramp_seed_525385756_from_pressure_equil_seed_353168294_P_15GPa_T_300K_density_0.2_P_15GPa_300K_to_2340K.xyz source_frame=25849 source_time_ps=139.625 seed_atoms=11,167 seed_distance_A=1.1534386747346517 h2_present_current_frame=F environment_radius_A=3.5768169566198655 cluster_build_rule=nearest_complete_covalent_fragments max_atoms_rule=reject_not_truncate_fragments charge=0 spin=1 event_id=8 event_frame=25858 frames_before_event=9 h2_definition=mutual_nearest_neighbor_HH_not_O_N_S event_h2_distance_A=0.9723208370472437 cluster_id=80 pbc="F F F"
H       11.56512252      11.62182074      11.97838478
H        8.97884629      10.22264832      12.71222947
H       10.78307643      13.66565218      11.21943014
O        9.89221667      13.47729575      11.22376501
H       10.41234193      10.74048565      12.28921269
H       12.43487748      12.37817926      12.02161522
H        9.47405523      14.18272903      10.94686642
O        9.81343336      10.86668211      13.10323481
H       12.01090713      10.62580638      10.42028414
O       11.11454353      11.35221724      10.61200050
O       12.35282137      11.53227330      12.62810530
H       10.33885447      10.97293762      10.36627982
12
Lattice="24.0 0.0 0.0 0.0 24.0 0.0 0.0 0.0 24.0" Properties=species:S:1:pos:R:3 sample_kind=h2_formation source_xyz=/home/kevinsh/mlip/outputsfull/temperature_ramp/r09_hot_w/temperature_ramp_seed_525385756_from_pressure_equil_seed_353168294_P_15GPa_T_300K_density_0.2_P_15GPa_300K_to_2340K.xyz source_frame=25961 source_time_ps=139.905 seed_atoms=56,206 seed_distance_A=0.9858497819478926 h2_present_current_frame=T environment_radius_A=3.467170723942868 cluster_build_rule=nearest_complete_covalent_fragments max_atoms_rule=reject_not_truncate_fragments charge=0 spin=1 event_id=9 event_frame=25961 frames_before_event=0 h2_definition=mutual_nearest_neighbor_HH_not_O_N_S event_h2_distance_A=0.9858497819478926 cluster_id=81 pbc="F F F"
O       11.44592768      11.32316869      10.79360669
H       13.78317527      13.01000612      10.46183614
O       11.54407291      12.66427893      13.02474746
H       11.75050283      11.79401244      11.62811933
H       11.02677382      13.43120646      12.24537259
H       15.14560946      10.64184588      12.53087790
O       14.31005494      10.56406038      12.10253374
O       13.96241882      13.13936075      11.38631748
H       11.48451687      12.17657172      10.06382607
H       12.24949717      12.20598756      12.37188067
H       14.41424871      12.66499008      12.08654474
H       13.52801126      11.10846517      12.47455628
12
Lattice="24.0 0.0 0.0 0.0 24.0 0.0 0.0 0.0 24.0" Properties=species:S:1:pos:R:3 sample_kind=h2_formation source_xyz=/home/kevinsh/mlip/outputsfull/temperature_ramp/r09_hot_w/temperature_ramp_seed_525385756_from_pressure_equil_seed_353168294_P_15GPa_T_300K_density_0.2_P_15GPa_300K_to_2340K.xyz source_frame=25960 source_time_ps=139.9025 seed_atoms=56,206 seed_distance_A=1.2294695830461957 h2_present_current_frame=F environment_radius_A=3.25440419667616 cluster_build_rule=nearest_complete_covalent_fragments max_atoms_rule=reject_not_truncate_fragments charge=0 spin=1 event_id=9 event_frame=25961 frames_before_event=1 h2_definition=mutual_nearest_neighbor_HH_not_O_N_S event_h2_distance_A=0.9858497819478926 cluster_id=82 pbc="F F F"
O       11.45894127      11.38874398      10.72364118
H       13.80825291      12.89569977      10.33509756
O       11.50125138      12.67072229      12.87238775
H       11.64276422      11.69089470      11.60663583
H       10.97871466      13.48660820      12.24296729
H       14.97687382      10.78724088      12.50851183
O       14.28098623      10.57320915      11.99411575
O       13.95972366      13.17607122      11.31964268
H       11.41786419      12.01193761      10.23306866
H       12.35723578      12.30910530      12.39336417
H       14.47768872      12.61124324      11.87894127
H       13.46902733      11.10953830      12.18791098
12
Lattice="24.0 0.0 0.0 0.0 24.0 0.0 0.0 0.0 24.0" Properties=species:S:1:pos:R:3 sample_kind=h2_formation source_xyz=/home/kevinsh/mlip/outputsfull/temperature_ramp/r09_hot_w/temperature_ramp_seed_525385756_from_pressure_equil_seed_353168294_P_15GPa_T_300K_density_0.2_P_15GPa_300K_to_2340K.xyz source_frame=25959 source_time_ps=139.9 seed_atoms=56,206 seed_distance_A=1.670713022412163 h2_present_current_frame=F environment_radius_A=3.283663673442534 cluster_build_rule=nearest_complete_covalent_fragments max_atoms_rule=reject_not_truncate_fragments charge=0 spin=1 event_id=9 event_frame=25961 frames_before_event=2 h2_definition=mutual_nearest_neighbor_HH_not_O_N_S event_h2_distance_A=0.9858497819478926 cluster_id=83 pbc="F F F"
O       11.55437339      11.33507450      10.61072791
H       14.01268738      12.67964402      10.29828719
O       11.54066899      12.59194291      12.65566870
H       11.52952778      11.49221105      11.53242459
H       11.12998746      13.30309408      12.30694568
H       15.03187864      10.89251242      12.60301767
O       14.32212550      10.48971760      11.82266970
O       14.03441187      13.12381682      11.18672186
H       11.38152562      12.19299851      10.01196485
H       12.47047222      12.50778895      12.46757541
H       14.58183725      12.43120183      11.57634548
H       13.56263059      10.96930509      11.83119283
12
Lattice="24.0 0.0 0.0 0.0 24.0 0.0 0.0 0.0 24.0" Properties=species:S:1:pos:R:3 sample_kind=h2_formation source_xyz=/home/kevinsh/mlip/outputsfull/temperature_ramp/r09_hot_w/temperature_ramp_seed_525385756_from_pressure_equil_seed_353168294_P_15GPa_T_300K_density_0.2_P_15GPa_300K_to_2340K.xyz source_frame=25958 source_time_ps=139.8975 seed_atoms=56,206 seed_distance_A=2.1513421941175546 h2_present_current_frame=F environment_radius_A=3.881601082488049 cluster_build_rule=nearest_complete_covalent_fragments max_atoms_rule=reject_not_truncate_fragments charge=0 spin=1 event_id=9 event_frame=25961 frames_before_event=3 h2_definition=mutual_nearest_neighbor_HH_not_O_N_S event_h2_distance_A=0.9858497819478926 cluster_id=84 pbc="F F F"
O       11.66866092      11.19907643      10.47029610
H       10.43261150       8.95463277      13.82643332
O       11.60698610      12.41942911      12.43430744
H       11.39524221      11.27588515      11.48328538
H       11.22869259      13.26284397      12.27001570
H       14.92895303      10.82062710      12.54482564
O       11.12699296       9.75500422      13.77215228
H       10.81241301      10.12796551      12.89476844
O       14.40446336      10.32673140      11.64732633
H       11.35645919      12.27345205       9.80609350
H       12.60475779      12.72411485      12.51671462
H       13.53811945      10.81383711      11.44846850
12
Lattice="24.0 0.0 0.0 0.0 24.0 0.0 0.0 0.0 24.0" Properties=species:S:1:pos:R:3 sample_kind=h2_formation source_xyz=/home/kevinsh/mlip/outputsfull/temperature_ramp/r09_hot_w/temperature_ramp_seed_525385756_from_pressure_equil_seed_353168294_P_15GPa_T_300K_density_0.2_P_15GPa_300K_to_2340K.xyz source_frame=25957 source_time_ps=139.895 seed_atoms=56,206 seed_distance_A=2.559408544652568 h2_present_current_frame=F environment_radius_A=3.9870437984897653 cluster_build_rule=nearest_complete_covalent_fragments max_atoms_rule=reject_not_truncate_fragments charge=0 spin=1 event_id=9 event_frame=25961 frames_before_event=4 h2_definition=mutual_nearest_neighbor_HH_not_O_N_S event_h2_distance_A=0.9858497819478926 cluster_id=85 pbc="F F F"
O       11.81735111      11.07403662      10.43923979
H       10.49419897       8.76501941      13.77875858
O       11.72747202      12.24687995      12.34283689
H       11.33993159      11.11183055      11.35726542
H       11.29318179      13.33955864      12.28920486
H       14.70740631      10.62715300      12.41681254
O       11.23118940       9.62517294      13.73213367
H       11.07394220      10.02041108      12.84969573
O       14.53401262      10.17199745      11.60174279
H       11.40936227      12.08383084       9.87658346
H       12.66006841      12.88816945      12.64273458
H       13.60220160      10.61395483      11.19735838
12
Lattice="24.0 0.0 0.0 0.0 24.0 0.0 0.0 0.0 24.0" Properties=species:S:1:pos:R:3 sample_kind=h2_formation source_xyz=/home/kevinsh/mlip/outputsfull/temperature_ramp/r09_hot_w/temperature_ramp_seed_525385756_from_pressure_equil_seed_353168294_P_15GPa_T_300K_density_0.2_P_15GPa_300K_to_2340K.xyz source_frame=25956 source_time_ps=139.8925 seed_atoms=56,206 seed_distance_A=2.75476595213761 h2_present_current_frame=F environment_radius_A=3.841916091996658 cluster_build_rule=nearest_complete_covalent_fragments max_atoms_rule=reject_not_truncate_fragments charge=0 spin=1 event_id=9 event_frame=25961 frames_before_event=5 h2_definition=mutual_nearest_neighbor_HH_not_O_N_S event_h2_distance_A=0.9858497819478926 cluster_id=86 pbc="F F F"
O       12.00292104      11.04374095      10.52245427
H       10.72500681       8.87833326      13.84117039
O       11.90051306      12.19251328      12.38688891
H       11.39843333      11.06020579      11.19248019
H       10.10314883      11.43117987      13.29500791
H       11.45363267      13.25119702      12.40664565
O       11.37445115       9.57189990      13.80911850
H       11.36722385       9.98934279      12.95865040
H       11.60153487      11.75517049      10.17937130
H        8.59047536      11.96383773      13.56117361
H       12.60156667      12.93979421      12.80751981
O        9.05962741      11.16303407      13.27118390
12
Lattice="24.0 0.0 0.0 0.0 24.0 0.0 0.0 0.0 24.0" Properties=species:S:1:pos:R:3 sample_kind=h2_formation source_xyz=/home/kevinsh/mlip/outputsfull/temperature_ramp/r09_hot_w/temperature_ramp_seed_525385756_from_pressure_equil_seed_353168294_P_15GPa_T_300K_density_0.2_P_15GPa_300K_to_2340K.xyz source_frame=25955 source_time_ps=139.89 seed_atoms=56,206 seed_distance_A=2.7763541861889656 h2_present_current_frame=F environment_radius_A=3.6284120672279543 cluster_build_rule=nearest_complete_covalent_fragments max_atoms_rule=reject_not_truncate_fragments charge=0 spin=1 event_id=9 event_frame=25961 frames_before_event=6 h2_definition=mutual_nearest_neighbor_HH_not_O_N_S event_h2_distance_A=0.9858497819478926 cluster_id=87 pbc="F F F"
O       12.22617357      11.12156153      10.55312820
H       10.89547988       9.06881716      13.83127732
O       12.10052461      12.29324993      12.39768769
H       11.43372659      11.07455862      11.13401598
H       10.22321521      11.51915450      13.18339271
H       11.63300238      13.08351894      12.40781185
O       11.55320043       9.64842777      13.83788826
H       11.65816209      10.09849891      12.98827977
H       11.75352371      11.86273294      10.22881680
H        8.82948309      12.06233769      13.60716777
H       12.56627341      12.92544138      12.86598402
O        9.26185965      11.26320454      13.30224509
12
Lattice="24.0 0.0 0.0 0.0 24.0 0.0 0.0 0.0 24.0" Properties=species:S:1:pos:R:3 sample_kind=h2_formation source_xyz=/home/kevinsh/mlip/outputsfull/temperature_ramp/r09_hot_w/temperature_ramp_seed_525385756_from_pressure_equil_seed_353168294_P_15GPa_T_300K_density_0.2_P_15GPa_300K_to_2340K.xyz source_frame=25954 source_time_ps=139.8875 seed_atoms=56,206 seed_distance_A=2.9743764168024316 h2_present_current_frame=F environment_radius_A=3.6041923986768434 cluster_build_rule=nearest_complete_covalent_fragments max_atoms_rule=reject_not_truncate_fragments charge=0 spin=1 event_id=9 event_frame=25961 frames_before_event=7 h2_definition=mutual_nearest_neighbor_HH_not_O_N_S event_h2_distance_A=0.9858497819478926 cluster_id=88 pbc="F F F"
H       10.32782334      10.55174416      10.07707945
O       12.27512949      11.21479248      10.49282808
H       10.07166638      11.85251834      11.30373507
H       10.69109850       9.10221541      13.69700447
O       12.12521333      12.41681938      12.32407216
H       11.39954617      11.02734452      11.04861928
H       11.42541456      13.05737160      12.20463190
O       11.57562710       9.76425312      13.77401820
H       11.74412726      10.22706218      12.92868742
H       11.74395805      12.23843596      10.01304678
H       12.60045383      12.97265548      12.95138072
O        9.90522289      10.84259132      10.85732699
12
Lattice="24.0 0.0 0.0 0.0 24.0 0.0 0.0 0.0 24.0" Properties=species:S:1:pos:R:3 sample_kind=h2_formation source_xyz=/home/kevinsh/mlip/outputsfull/temperature_ramp/r09_hot_w/temperature_ramp_seed_525385756_from_pressure_equil_seed_353168294_P_15GPa_T_300K_density_0.2_P_15GPa_300K_to_2340K.xyz source_frame=25953 source_time_ps=139.885 seed_atoms=56,206 seed_distance_A=3.207193012832026 h2_present_current_frame=F environment_radius_A=3.513597970707524 cluster_build_rule=nearest_complete_covalent_fragments max_atoms_rule=reject_not_truncate_fragments charge=0 spin=1 event_id=9 event_frame=25961 frames_before_event=8 h2_definition=mutual_nearest_neighbor_HH_not_O_N_S event_h2_distance_A=0.9858497819478926 cluster_id=89 pbc="F F F"
H       10.22964682      10.60626072       9.97199198
O       12.15299826      11.30937954      10.45739458
H       10.01156187      11.88882778      11.33626569
H       10.49062384       9.24028095      13.56560054
O       11.99579641      12.52878481      12.29161564
H       11.42639089      10.96410052      10.91860894
H       11.01769305      13.10325718      11.97895926
O       11.44077672       9.86294872      13.73914262
H       11.63800970      10.32262931      12.91492457
H       11.77302125      12.39261003       9.90253937
H       12.57360911      13.03589948      13.08139106
O        9.79207546      10.93611149      10.78036033
12
Lattice="24.0 0.0 0.0 0.0 24.0 0.0 0.0 0.0 24.0" Properties=species:S:1:pos:R:3 sample_kind=h2_formation source_xyz=/home/kevinsh/mlip/outputsfull/temperature_ramp/r09_hot_w/temperature_ramp_seed_525385756_from_pressure_equil_seed_353168294_P_15GPa_T_300K_density_0.2_P_15GPa_300K_to_2340K.xyz source_frame=25952 source_time_ps=139.8825 seed_atoms=56,206 seed_distance_A=3.2478832344706636 h2_present_current_frame=F environment_radius_A=3.5575891167990052 cluster_build_rule=nearest_complete_covalent_fragments max_atoms_rule=reject_not_truncate_fragments charge=0 spin=1 event_id=9 event_frame=25961 frames_before_event=9 h2_definition=mutual_nearest_neighbor_HH_not_O_N_S event_h2_distance_A=0.9858497819478926 cluster_id=90 pbc="F F F"
O       12.11492813      11.44840302      10.48041048
H       10.57043517       9.54134611      13.51457565
O       11.94241702      12.68001931      12.34588592
H       11.49704159      10.91266117      10.90368185
H       10.07352050      11.85954400      12.84801767
H       10.96394033      13.12258727      11.90390220
O       11.38054281       9.97986684      13.77545456
H       11.59191149      10.44741976      12.96379351
H       11.98993435      12.33117604       9.99444608
H        8.81817138      12.55692540      13.49071831
H       12.50295841      13.08733883      13.09631815
O        9.12606627      11.66318402      13.27072965
12
Lattice="24.0 0.0 0.0 0.0 24.0 0.0 0.0 0.0 24.0" Properties=species:S:1:pos:R:3 sample_kind=h2_formation source_xyz=/home/kevinsh/mlip/outputsfull/temperature_ramp/r09_hot_w/temperature_ramp_seed_525385756_from_pressure_equil_seed_353168294_P_15GPa_T_300K_density_0.2_P_15GPa_300K_to_2340K.xyz source_frame=26038 source_time_ps=140.0975 seed_atoms=76,94 seed_distance_A=0.9903681618643244 h2_present_current_frame=T environment_radius_A=3.519507864440383 cluster_build_rule=nearest_complete_covalent_fragments max_atoms_rule=reject_not_truncate_fragments charge=0 spin=1 event_id=10 event_frame=26038 frames_before_event=0 h2_definition=mutual_nearest_neighbor_HH_not_O_N_S event_h2_distance_A=0.9903681618643244 cluster_id=91 pbc="F F F"
O       12.37792313      11.66822240      13.28515197
H       13.03303849       9.89538288      12.43955074
H       12.08529991      15.50202243      11.66014938
H       11.78814479      12.11337285      12.43297949
H       12.21185521      11.88662715      11.56702051
H       12.65589918      14.02915572      11.24126959
O       11.75566631      11.96494948      10.60222416
H       10.81874344      11.95473704      10.78001726
H       13.37602866      12.10974277      13.52932005
O       12.91336959      14.92190889      11.50603847
O       12.96449962       9.71276586      11.51162496
H       12.68188720      10.45670390      10.83522864
12
Lattice="24.0 0.0 0.0 0.0 24.0 0.0 0.0 0.0 24.0" Properties=species:S:1:pos:R:3 sample_kind=h2_formation source_xyz=/home/kevinsh/mlip/outputsfull/temperature_ramp/r09_hot_w/temperature_ramp_seed_525385756_from_pressure_equil_seed_353168294_P_15GPa_T_300K_density_0.2_P_15GPa_300K_to_2340K.xyz source_frame=26037 source_time_ps=140.095 seed_atoms=76,94 seed_distance_A=1.0963101186473025 h2_present_current_frame=F environment_radius_A=3.469696492190967 cluster_build_rule=nearest_complete_covalent_fragments max_atoms_rule=reject_not_truncate_fragments charge=0 spin=1 event_id=10 event_frame=26038 frames_before_event=1 h2_definition=mutual_nearest_neighbor_HH_not_O_N_S event_h2_distance_A=0.9903681618643244 cluster_id=92 pbc="F F F"
O       12.28601466      11.63962551      13.30045951
H       12.81817431       9.79602024      12.43486618
H       12.17924340      15.45853012      11.78731488
H       11.96823093      12.18356720      12.51552670
H       12.03176907      11.81643280      11.48447330
H       12.47860146      13.95605336      11.18569313
O       11.60356685      11.92672283      10.65568174
H       10.63660891      11.98068828      10.67769966
H       13.13620027      12.04385782      13.46516197
O       12.76621801      14.87307900      11.51287444
O       12.77957129       9.68064924      11.54467363
H       12.67055682      10.49049628      10.92669647
12
Lattice="24.0 0.0 0.0 0.0 24.0 0.0 0.0 0.0 24.0" Properties=species:S:1:pos:R:3 sample_kind=h2_formation source_xyz=/home/kevinsh/mlip/outputsfull/temperature_ramp/r09_hot_w/temperature_ramp_seed_525385756_from_pressure_equil_seed_353168294_P_15GPa_T_300K_density_0.2_P_15GPa_300K_to_2340K.xyz source_frame=26036 source_time_ps=140.0925 seed_atoms=76,94 seed_distance_A=1.4325023980272515 h2_present_current_frame=F environment_radius_A=3.5558151405792175 cluster_build_rule=nearest_complete_covalent_fragments max_atoms_rule=reject_not_truncate_fragments charge=0 spin=1 event_id=10 event_frame=26038 frames_before_event=2 h2_definition=mutual_nearest_neighbor_HH_not_O_N_S event_h2_distance_A=0.9903681618643244 cluster_id=93 pbc="F F F"
O       12.19132793      11.62537949      13.22969561
H       12.59153964       9.78682830      12.50196938
H       12.07082778      15.55211708      11.85416108
H       12.13496778      12.28758555      12.64194550
H       11.86503222      11.71241445      11.35805450
H       12.29317327      14.00103218      11.09827511
O       11.45148857      11.90438927      10.61807556
H       10.43318251      11.99496884      10.51277546
H       12.97658755      12.01926466      13.33824791
O       12.63472546      14.82421648      11.43650065
O       12.59586525       9.66013028      11.47624882
H       12.66204086      10.44708231      11.01464540
12
Lattice="24.0 0.0 0.0 0.0 24.0 0.0 0.0 0.0 24.0" Properties=species:S:1:pos:R:3 sample_kind=h2_formation source_xyz=/home/kevinsh/mlip/outputsfull/temperature_ramp/r09_hot_w/temperature_ramp_seed_525385756_from_pressure_equil_seed_353168294_P_15GPa_T_300K_density_0.2_P_15GPa_300K_to_2340K.xyz source_frame=26035 source_time_ps=140.09 seed_atoms=76,94 seed_distance_A=1.560540111655567 h2_present_current_frame=F environment_radius_A=3.519810810920467 cluster_build_rule=nearest_complete_covalent_fragments max_atoms_rule=reject_not_truncate_fragments charge=0 spin=1 event_id=10 event_frame=26038 frames_before_event=3 h2_definition=mutual_nearest_neighbor_HH_not_O_N_S event_h2_distance_A=0.9903681618643244 cluster_id=94 pbc="F F F"
O       12.15227442      11.56165942      13.12438657
H       12.40591511       9.75245643      12.37085231
H       12.01118917      15.51329045      11.78614688
H       12.21439201      12.49238207      12.56605417
H       11.78560799      11.50761793      11.43394583
H       12.11089121      14.00856153      10.98563137
O       11.35107337      11.84566901      10.52274954
H       10.38245250      11.93429443      10.35831387
H       13.17176201      11.97698943      13.30412287
O       12.57286017      14.74049930      11.33140111
O       12.47756219       9.58803883      11.37858510
H       12.71975886      10.44756033      11.00610587
12
Lattice="24.0 0.0 0.0 0.0 24.0 0.0 0.0 0.0 24.0" Properties=species:S:1:pos:R:3 sample_kind=h2_formation source_xyz=/home/kevinsh/mlip/outputsfull/temperature_ramp/r09_hot_w/temperature_ramp_seed_525385756_from_pressure_equil_seed_353168294_P_15GPa_T_300K_density_0.2_P_15GPa_300K_to_2340K.xyz source_frame=26034 source_time_ps=140.0875 seed_atoms=76,94 seed_distance_A=1.7837105898035526 h2_present_current_frame=F environment_radius_A=3.3767079367230286 cluster_build_rule=nearest_complete_covalent_fragments max_atoms_rule=reject_not_truncate_fragments charge=0 spin=1 event_id=10 event_frame=26038 frames_before_event=4 h2_definition=mutual_nearest_neighbor_HH_not_O_N_S event_h2_distance_A=0.9903681618643244 cluster_id=95 pbc="F F F"
O       12.27397956      11.54669492      13.06714471
H       12.34808887       9.74753699      12.18825779
H       12.15968642      15.35389168      11.64213499
H       12.32892980      12.60277027      12.56910373
H       11.67107020      11.39722973      11.43089627
H       12.02891414      14.01056900      10.92347605
O       11.40232629      11.81533613      10.48528042
H       10.50020024      11.86435623      10.30484323
H       13.38780792      11.82839718      13.34520498
O       12.65948158      14.70025984      11.29256105
O       12.50957876       9.54350469      11.33740491
H       12.90748109      10.45970670      11.00827063
12
Lattice="24.0 0.0 0.0 0.0 24.0 0.0 0.0 0.0 24.0" Properties=species:S:1:pos:R:3 sample_kind=h2_formation source_xyz=/home/kevinsh/mlip/outputsfull/temperature_ramp/r09_hot_w/temperature_ramp_seed_525385756_from_pressure_equil_seed_353168294_P_15GPa_T_300K_density_0.2_P_15GPa_300K_to_2340K.xyz source_frame=26033 source_time_ps=140.085 seed_atoms=76,94 seed_distance_A=1.9993104032374087 h2_present_current_frame=F environment_radius_A=2.7570071538738397 cluster_build_rule=nearest_complete_covalent_fragments max_atoms_rule=reject_not_truncate_fragments charge=0 spin=1 event_id=10 event_frame=26038 frames_before_event=5 h2_definition=mutual_nearest_neighbor_HH_not_O_N_S event_h2_distance_A=0.9903681618643244 cluster_id=96 pbc="F F F"
O       12.50219442      11.63302746      13.04458181
H       12.32325860       9.85277243      12.22231794
H       12.47317443      12.55160940      12.68639897
H       11.52682557      11.44839060      11.31360103
O        9.34337361      12.67429188      12.29791795
H        9.75758242      11.79478161      12.50656579
O       11.55327063      11.86040647      10.49651334
H       10.59511304      11.84386208      10.28595461
H        9.97276899      13.13920782      11.68864841
H       13.43009368      11.67355684      13.37750415
O       12.64021733       9.58227982      11.31878713
H       13.10002710      10.40562594      11.04589320
12
Lattice="24.0 0.0 0.0 0.0 24.0 0.0 0.0 0.0 24.0" Properties=species:S:1:pos:R:3 sample_kind=h2_formation source_xyz=/home/kevinsh/mlip/outputsfull/temperature_ramp/r09_hot_w/temperature_ramp_seed_525385756_from_pressure_equil_seed_353168294_P_15GPa_T_300K_density_0.2_P_15GPa_300K_to_2340K.xyz source_frame=26032 source_time_ps=140.0825 seed_atoms=76,94 seed_distance_A=2.1745781661433914 h2_present_current_frame=F environment_radius_A=2.598528715492207 cluster_build_rule=nearest_complete_covalent_fragments max_atoms_rule=reject_not_truncate_fragments charge=0 spin=1 event_id=10 event_frame=26038 frames_before_event=6 h2_definition=mutual_nearest_neighbor_HH_not_O_N_S event_h2_distance_A=0.9903681618643244 cluster_id=97 pbc="F F F"
O       12.73803155      11.73905216      12.98879936
H       12.31289180       9.93945099      12.18103879
H       12.59324820      12.54027006      12.73373182
H       11.40675180      11.45972994      11.26626818
O        9.53243238      12.75349366      12.30936844
H        9.97688601      11.92439202      12.27223712
O       11.70847168      11.92695314      10.47103677
H       10.71638483      11.84810530      10.18661226
H       10.12620384      13.07660872      11.70331474
H       13.46299130      11.53873118      13.41752370
O       12.78262824       9.64054021      11.26821456
H       13.25736420      10.36377289      11.01409376
12
Lattice="24.0 0.0 0.0 0.0 24.0 0.0 0.0 0.0 24.0" Properties=species:S:1:pos:R:3 sample_kind=h2_formation source_xyz=/home/kevinsh/mlip/outputsfull/temperature_ramp/r09_hot_w/temperature_ramp_seed_525385756_from_pressure_equil_seed_353168294_P_15GPa_T_300K_density_0.2_P_15GPa_300K_to_2340K.xyz source_frame=26031 source_time_ps=140.08 seed_atoms=76,94 seed_distance_A=2.3801445446256904 h2_present_current_frame=F environment_radius_A=2.630912484367007 cluster_build_rule=nearest_complete_covalent_fragments max_atoms_rule=reject_not_truncate_fragments charge=0 spin=1 event_id=10 event_frame=26038 frames_before_event=7 h2_definition=mutual_nearest_neighbor_HH_not_O_N_S event_h2_distance_A=0.9903681618643244 cluster_id=98 pbc="F F F"
O       12.89619158      11.67860512      12.96733059
H       12.65740867      12.69435809      12.70848620
H       10.83387266       9.78184449      11.83306964
H       11.34259133      11.30564191      11.29151380
O        9.65865068      12.68336057      12.36745579
O       11.05632355       9.66408959      12.75808826
H       10.12224538      11.82120470      12.15226442
O       11.78997652      11.84559227      10.48279116
H       10.89793198      11.75336935      10.05199667
H       10.30546272      13.01050132      11.66571452
H       13.64224362      11.32051629      13.64786676
H       11.04315863      10.49297737      13.21199751
12
Lattice="24.0 0.0 0.0 0.0 24.0 0.0 0.0 0.0 24.0" Properties=species:S:1:pos:R:3 sample_kind=h2_formation source_xyz=/home/kevinsh/mlip/outputsfull/temperature_ramp/r09_hot_w/temperature_ramp_seed_525385756_from_pressure_equil_seed_353168294_P_15GPa_T_300K_density_0.2_P_15GPa_300K_to_2340K.xyz source_frame=26030 source_time_ps=140.0775 seed_atoms=76,94 seed_distance_A=2.518526919921804 h2_present_current_frame=F environment_radius_A=2.7074973597843455 cluster_build_rule=nearest_complete_covalent_fragments max_atoms_rule=reject_not_truncate_fragments charge=0 spin=1 event_id=10 event_frame=26038 frames_before_event=8 h2_definition=mutual_nearest_neighbor_HH_not_O_N_S event_h2_distance_A=0.9903681618643244 cluster_id=99 pbc="F F F"
O       12.90862174      11.66470114      12.97824625
H       12.68469235      12.72090910      12.77280716
H       10.76868648       9.81549796      11.98270950
H       11.31530765      11.27909090      11.22719284
O        9.65263112      12.65406940      12.45523169
O       11.04680474       9.61809092      12.86514154
H       10.04164659      11.76807449      12.16764770
O       11.71659815      11.80275944      10.53485778
H       10.99823274      11.74183595       9.88325129
H       10.29891802      13.06952999      11.72558973
H       13.52620399      11.35461265      13.84226195
H       10.91087714      10.57654049      13.04508757
12
Lattice="24.0 0.0 0.0 0.0 24.0 0.0 0.0 0.0 24.0" Properties=species:S:1:pos:R:3 sample_kind=h2_formation source_xyz=/home/kevinsh/mlip/outputsfull/temperature_ramp/r09_hot_w/temperature_ramp_seed_525385756_from_pressure_equil_seed_353168294_P_15GPa_T_300K_density_0.2_P_15GPa_300K_to_2340K.xyz source_frame=26029 source_time_ps=140.075 seed_atoms=76,94 seed_distance_A=2.612463476824881 h2_present_current_frame=F environment_radius_A=2.6722185901107136 cluster_build_rule=nearest_complete_covalent_fragments max_atoms_rule=reject_not_truncate_fragments charge=0 spin=1 event_id=10 event_frame=26038 frames_before_event=9 h2_definition=mutual_nearest_neighbor_HH_not_O_N_S event_h2_distance_A=0.9903681618643244 cluster_id=100 pbc="F F F"
O       12.85464006      11.79085872      12.94315220
H       12.03918107       9.84866966      11.96885340
H       12.73812094      12.65332467      12.85707976
H       10.59431966       9.87091569      11.98525607
H       11.26187906      11.34667533      11.14292024
O       10.96537944       9.71519975      12.92195463
O       11.57860602      11.89873752      10.53236945
H       11.04326041      11.87610532       9.67086643
H       13.16895179      11.71237069      13.85776006
H       10.76587821      10.77106840      12.95482239
O       12.71524224       9.58007402      11.23986007
H       13.10137279      10.34017977      10.90406901
12
Lattice="24.0 0.0 0.0 0.0 24.0 0.0 0.0 0.0 24.0" Properties=species:S:1:pos:R:3 sample_kind=unbiased source_xyz=/home/kevinsh/mlip/outputsfull/temperature_ramp/r09_hot_w/temperature_ramp_seed_525385756_from_pressure_equil_seed_353168294_P_15GPa_T_300K_density_0.2_P_15GPa_300K_to_2340K.xyz source_frame=25000 source_time_ps=137.5025 seed_atoms=57 seed_distance_A=nan h2_present_current_frame=F environment_radius_A=3.8187836667023882 cluster_build_rule=nearest_complete_covalent_fragments max_atoms_rule=reject_not_truncate_fragments charge=0 spin=1 cluster_id=101 pbc="F F F"
O       10.81428793      12.55075537       9.44304605
H       11.08562777      11.71881800      11.74709224
O       12.00000000      12.00000000      12.00000000
H       12.55458492       9.40470294      11.78382909
H       10.01940357      12.44795583      10.07359461
O       12.03745778      14.26005756      13.91625818
H       11.98657463      15.10644134      14.22102468
H       11.71329297      13.99774516      13.11736597
H       11.35395553      10.21625884      11.21070388
O       12.06736779       9.48502831      11.09503817
H       12.12585365      11.83473207      12.94762903
H       11.61166319      12.72717914      10.05122375
12
Lattice="24.0 0.0 0.0 0.0 24.0 0.0 0.0 0.0 24.0" Properties=species:S:1:pos:R:3 sample_kind=unbiased source_xyz=/home/kevinsh/mlip/outputsfull/temperature_ramp/r09_hot_w/temperature_ramp_seed_525385756_from_pressure_equil_seed_353168294_P_15GPa_T_300K_density_0.2_P_15GPa_300K_to_2340K.xyz source_frame=25001 source_time_ps=137.505 seed_atoms=12 seed_distance_A=nan h2_present_current_frame=F environment_radius_A=3.528729285437806 cluster_build_rule=nearest_complete_covalent_fragments max_atoms_rule=reject_not_truncate_fragments charge=0 spin=1 cluster_id=102 pbc="F F F"
O       12.00000000      12.00000000      12.00000000
H       14.60868031       9.71132637      11.36071100
H       11.30889882      11.45731929      11.89740290
H       12.73256499      13.21286004      13.19892690
H       13.08002246      10.51254102      11.52282465
O       12.42283129      13.99036241      13.78323252
O       14.00732602      10.59466897      11.19443825
H       11.62936904      14.28382771      13.45216899
H       11.90969583      12.39522312      11.10156440
H       12.38721472      11.36281001      13.32928295
O       12.07769412      11.14725569      14.29003821
H       11.10969087      11.43121331      14.34768246
13
Lattice="24.0 0.0 0.0 0.0 24.0 0.0 0.0 0.0 24.0" Properties=species:S:1:pos:R:3 sample_kind=unbiased source_xyz=/home/kevinsh/mlip/outputsfull/temperature_ramp/r09_hot_w/temperature_ramp_seed_525385756_from_pressure_equil_seed_353168294_P_15GPa_T_300K_density_0.2_P_15GPa_300K_to_2340K.xyz source_frame=25002 source_time_ps=137.5075 seed_atoms=140 seed_distance_A=nan h2_present_current_frame=F environment_radius_A=3.9255736909832835 cluster_build_rule=nearest_complete_covalent_fragments max_atoms_rule=reject_not_truncate_fragments charge=0 spin=1 cluster_id=103 pbc="F F F"
O       12.12554956      12.18389721      13.01485053
H       10.89137626       9.35760706      14.01087140
H       11.42898002       9.97798166      10.83775863
H       12.34525582      10.61102314      11.61050875
H       12.00000000      12.00000000      12.00000000
O       11.01483812       9.63972058      13.07263150
H       11.49685377      12.85341096      14.73257152
H       10.86303742      10.62895024      12.96969861
H       12.98011420      12.56864771      13.33908445
O       12.23146715      10.37461064      10.73657825
H       10.15540039      14.24145970      14.64261981
H       11.09008852      13.64216917      13.21845139
O       10.79148039      13.40633476      14.25614098
12
Lattice="24.0 0.0 0.0 0.0 24.0 0.0 0.0 0.0 24.0" Properties=species:S:1:pos:R:3 sample_kind=unbiased source_xyz=/home/kevinsh/mlip/outputsfull/temperature_ramp/r09_hot_w/temperature_ramp_seed_525385756_from_pressure_equil_seed_353168294_P_15GPa_T_300K_density_0.2_P_15GPa_300K_to_2340K.xyz source_frame=25003 source_time_ps=137.51 seed_atoms=125 seed_distance_A=nan h2_present_current_frame=F environment_radius_A=3.217907731589376 cluster_build_rule=nearest_complete_covalent_fragments max_atoms_rule=reject_not_truncate_fragments charge=0 spin=1 cluster_id=104 pbc="F F F"
H       10.71643970      12.39253426      14.30210970
H       12.85368842      13.30793315      11.70488377
H        9.93759074      11.23837151      11.85358360
O       11.98706268      11.15229585      11.56026313
H       12.00000000      12.00000000      12.00000000
H        8.94166258      12.43653861      11.09947991
O       13.14366290      14.08585657      12.09020925
H       12.32676140      12.05087223      13.80789575
H       12.39051911      14.41248648      12.73215459
O       11.57876169      12.84539171      13.99755242
H       12.09237343      10.29963869      12.06498280
O        9.71754207      11.95491759      10.98291428
10
Lattice="24.0 0.0 0.0 0.0 24.0 0.0 0.0 0.0 24.0" Properties=species:S:1:pos:R:3 sample_kind=unbiased source_xyz=/home/kevinsh/mlip/outputsfull/temperature_ramp/r09_hot_w/temperature_ramp_seed_525385756_from_pressure_equil_seed_353168294_P_15GPa_T_300K_density_0.2_P_15GPa_300K_to_2340K.xyz source_frame=25004 source_time_ps=137.5125 seed_atoms=114 seed_distance_A=nan h2_present_current_frame=F environment_radius_A=5.638251330162965 cluster_build_rule=nearest_complete_covalent_fragments max_atoms_rule=reject_not_truncate_fragments charge=0 spin=1 cluster_id=105 pbc="F F F"
H       10.58993054       9.15092283      14.46793557
H        9.23588441       8.88357855      14.67962669
H       10.09839949       7.35689835      14.57204211
H       11.94648890      10.18252245      13.13902402
O       12.00000000      12.00000000      12.00000000
O        9.99960129       8.18619297      15.08078336
H       11.15282303      10.84462327      14.50237903
H       12.31577626      11.90672527      11.03985417
O       11.26510767      10.12577719      13.98151833
H       12.12768304      12.88003142      12.40310607
12
Lattice="24.0 0.0 0.0 0.0 24.0 0.0 0.0 0.0 24.0" Properties=species:S:1:pos:R:3 sample_kind=unbiased source_xyz=/home/kevinsh/mlip/outputsfull/temperature_ramp/r09_hot_w/temperature_ramp_seed_525385756_from_pressure_equil_seed_353168294_P_15GPa_T_300K_density_0.2_P_15GPa_300K_to_2340K.xyz source_frame=25015 source_time_ps=137.54 seed_atoms=71 seed_distance_A=nan h2_present_current_frame=F environment_radius_A=2.9034681743013424 cluster_build_rule=nearest_complete_covalent_fragments max_atoms_rule=reject_not_truncate_fragments charge=0 spin=1 cluster_id=106 pbc="F F F"
O       12.09515285      11.45911315       9.96523286
H       12.35918118      10.77781488      10.64408055
H       13.07100298      13.90193616      12.30753315
O       12.18290568      13.71073063      11.80693916
H       12.00000000      12.00000000      12.00000000
O       11.93888739      11.54353542      13.11777841
H       12.66822490      12.25318491       9.96518466
H       11.38181513      13.74578315      12.07109438
O       10.54403098       9.50582809      12.29897852
H       10.73712849      10.38708777      11.81463315
H       12.17743271      10.54317948      13.84326521
H       11.53190776       9.33469587      12.46758842
12
Lattice="24.0 0.0 0.0 0.0 24.0 0.0 0.0 0.0 24.0" Properties=species:S:1:pos:R:3 sample_kind=unbiased source_xyz=/home/kevinsh/mlip/outputsfull/temperature_ramp/r09_hot_w/temperature_ramp_seed_525385756_from_pressure_equil_seed_353168294_P_15GPa_T_300K_density_0.2_P_15GPa_300K_to_2340K.xyz source_frame=25016 source_time_ps=137.5425 seed_atoms=52 seed_distance_A=nan h2_present_current_frame=F environment_radius_A=3.1929617788858433 cluster_build_rule=nearest_complete_covalent_fragments max_atoms_rule=reject_not_truncate_fragments charge=0 spin=1 cluster_id=107 pbc="F F F"
O       11.68690997      10.83182511      10.32656257
O       11.61928882      12.64867135      11.31493485
H       12.00000000      12.00000000      12.00000000
H       11.51625996      13.18972773      13.39826995
O       11.53237812      12.71078179      14.49927250
H       12.52012186      13.30327195      11.44398250
O       10.09435137      10.71148339      13.70473415
H       10.08771559      11.48509223      13.19728849
H       11.68776602      11.80806856      15.17185706
H       11.01697661      10.89953563      11.07190702
H       11.06169518      10.38572706       9.63995196
H       10.97738039      10.51634696      13.88174785
10
Lattice="24.0 0.0 0.0 0.0 24.0 0.0 0.0 0.0 24.0" Properties=species:S:1:pos:R:3 sample_kind=unbiased source_xyz=/home/kevinsh/mlip/outputsfull/temperature_ramp/r09_hot_w/temperature_ramp_seed_525385756_from_pressure_equil_seed_353168294_P_15GPa_T_300K_density_0.2_P_15GPa_300K_to_2340K.xyz source_frame=25017 source_time_ps=137.545 seed_atoms=279 seed_distance_A=nan h2_present_current_frame=F environment_radius_A=3.6556633984511335 cluster_build_rule=nearest_complete_covalent_fragments max_atoms_rule=reject_not_truncate_fragments charge=0 spin=1 cluster_id=108 pbc="F F F"
H       13.50875428      12.14108917       8.67319534
H       13.38860170      10.55659361      13.28371251
H       12.77373554      11.94836425      10.16898532
H       14.76777761      11.01416581      12.64599466
O       14.04491409      11.42801329      13.23582793
H       12.96088721      11.95415326      12.94938733
H       11.11316285      11.83803706      12.46227252
H       12.47045128      11.09421970      11.43290276
O       13.42103448      11.69788192       9.48506250
O       12.00000000      12.00000000      12.00000000
12
Lattice="24.0 0.0 0.0 0.0 24.0 0.0 0.0 0.0 24.0" Properties=species:S:1:pos:R:3 sample_kind=unbiased source_xyz=/home/kevinsh/mlip/outputsfull/temperature_ramp/r09_hot_w/temperature_ramp_seed_525385756_from_pressure_equil_seed_353168294_P_15GPa_T_300K_density_0.2_P_15GPa_300K_to_2340K.xyz source_frame=25018 source_time_ps=137.5475 seed_atoms=44 seed_distance_A=nan h2_present_current_frame=F environment_radius_A=4.848206786578215 cluster_build_rule=nearest_complete_covalent_fragments max_atoms_rule=reject_not_truncate_fragments charge=0 spin=1 cluster_id=109 pbc="F F F"
H       12.23755489      12.02070103      10.02567206
H       12.00000000      12.00000000      12.00000000
H       13.38921269      11.76489884      12.58470867
H       14.74181444      11.74480870       8.00970677
H       10.79174159       9.79168315      12.62812702
H       13.59597043      12.26299695       9.48553218
O       12.89668437      12.33291044      12.08386416
H       15.23023095      10.90575152       9.27945437
H       11.99219303      10.92746481      13.01952161
O       12.64453339      12.71779696       9.57448622
O       14.39695620      11.51053055       8.97041655
O       11.29180662      10.22266603      13.33353466
12
Lattice="24.0 0.0 0.0 0.0 24.0 0.0 0.0 0.0 24.0" Properties=species:S:1:pos:R:3 sample_kind=unbiased source_xyz=/home/kevinsh/mlip/outputsfull/temperature_ramp/r09_hot_w/temperature_ramp_seed_525385756_from_pressure_equil_seed_353168294_P_15GPa_T_300K_density_0.2_P_15GPa_300K_to_2340K.xyz source_frame=25019 source_time_ps=137.55 seed_atoms=216 seed_distance_A=nan h2_present_current_frame=F environment_radius_A=4.328669084085462 cluster_build_rule=nearest_complete_covalent_fragments max_atoms_rule=reject_not_truncate_fragments charge=0 spin=1 cluster_id=110 pbc="F F F"
H        9.98014154      10.52139649      11.32947162
O       11.22390668      12.30041522      15.27845321
H       13.40405627      10.86949138      13.40427763
H       11.17969661      12.63377327      16.20271458
O       12.60345641      10.40439793      14.00012085
H       11.62679575      12.90201918      11.77171758
O       10.27054146       9.86654718      12.00152207
H       12.97756296      10.85088120      14.85034281
H       11.19112962      10.37566576      12.23767600
O       12.00000000      12.00000000      12.00000000
H       13.11261583      12.03694708      11.87585799
H       11.50054880      12.76462255      14.43271998
12
Lattice="24.0 0.0 0.0 0.0 24.0 0.0 0.0 0.0 24.0" Properties=species:S:1:pos:R:3 sample_kind=unbiased source_xyz=/home/kevinsh/mlip/outputsfull/temperature_ramp/r09_hot_w/temperature_ramp_seed_525385756_from_pressure_equil_seed_353168294_P_15GPa_T_300K_density_0.2_P_15GPa_300K_to_2340K.xyz source_frame=25020 source_time_ps=137.5525 seed_atoms=16 seed_distance_A=nan h2_present_current_frame=F environment_radius_A=2.8680580778842604 cluster_build_rule=nearest_complete_covalent_fragments max_atoms_rule=reject_not_truncate_fragments charge=0 spin=1 cluster_id=111 pbc="F F F"
O       13.56696033      11.62154596      10.65935455
H       11.98293635      12.47654250      13.30135207
O       11.81372928      12.77311647      12.40479862
H       12.00000000      12.00000000      12.00000000
H       12.93686950      12.07569436      10.29584779
O       11.17649791      10.08670272      13.97152098
H       14.04128133      12.35506344      11.15616205
H       10.79744014      10.45464675      13.15768329
H       12.09746597       9.34403074      11.16465668
O       12.51618259       9.64157172      11.99941307
H       11.96339916       9.72410006      13.63427385
H       12.89689066      10.33998179      11.54152916
12
Lattice="24.0 0.0 0.0 0.0 24.0 0.0 0.0 0.0 24.0" Properties=species:S:1:pos:R:3 sample_kind=unbiased source_xyz=/home/kevinsh/mlip/outputsfull/temperature_ramp/r09_hot_w/temperature_ramp_seed_525385756_from_pressure_equil_seed_353168294_P_15GPa_T_300K_density_0.2_P_15GPa_300K_to_2340K.xyz source_frame=25021 source_time_ps=137.555 seed_atoms=15 seed_distance_A=nan h2_present_current_frame=F environment_radius_A=3.3148375064159685 cluster_build_rule=nearest_complete_covalent_fragments max_atoms_rule=reject_not_truncate_fragments charge=0 spin=1 cluster_id=112 pbc="F F F"
H       12.35459505      11.75354493      12.85519616
O       12.00000000      12.00000000      12.00000000
H       12.27807750      11.08371441      11.46712940
H       14.02299738      12.10869173      13.36713107
O        9.79474093      12.52721458      13.22100811
H        9.48484681      14.14490656      11.75195163
O       10.52677804      14.20961583      11.84705839
O       14.49457846      12.58242751      12.56781582
H       11.21621774      13.80143977      11.43391531
H        9.49488986      12.17474708      14.07815011
H       13.78975911      13.19534971      12.43115163
H       10.59420913      13.26578699      13.11859676
12
Lattice="24.0 0.0 0.0 0.0 24.0 0.0 0.0 0.0 24.0" Properties=species:S:1:pos:R:3 sample_kind=unbiased source_xyz=/home/kevinsh/mlip/outputsfull/temperature_ramp/r09_hot_w/temperature_ramp_seed_525385756_from_pressure_equil_seed_353168294_P_15GPa_T_300K_density_0.2_P_15GPa_300K_to_2340K.xyz source_frame=25022 source_time_ps=137.5575 seed_atoms=47 seed_distance_A=nan h2_present_current_frame=F environment_radius_A=2.990495049466734 cluster_build_rule=nearest_complete_covalent_fragments max_atoms_rule=reject_not_truncate_fragments charge=0 spin=1 cluster_id=113 pbc="F F F"
H       12.00000000      12.00000000      12.00000000
O       11.10840992      10.02011092      13.48584026
H       13.95475575      13.42445738      10.24133238
H       12.63451029      12.29017462      10.41122296
O       13.09107068      12.26593944      13.08133552
H       13.30081627      13.09865381      13.11663507
H       11.16358181      12.43298666      10.84299486
O       13.08354283      12.99679678      10.00245476
H       12.79141214      12.38164380      13.98809227
O       11.26006843      11.75705354      11.43772687
H       11.96170014       9.70716528      13.14547347
H       10.84394619      10.94601371      13.25201908
12
Lattice="24.0 0.0 0.0 0.0 24.0 0.0 0.0 0.0 24.0" Properties=species:S:1:pos:R:3 sample_kind=unbiased source_xyz=/home/kevinsh/mlip/outputsfull/temperature_ramp/r09_hot_w/temperature_ramp_seed_525385756_from_pressure_equil_seed_353168294_P_15GPa_T_300K_density_0.2_P_15GPa_300K_to_2340K.xyz source_frame=25023 source_time_ps=137.56 seed_atoms=111 seed_distance_A=nan h2_present_current_frame=F environment_radius_A=3.5239934693161947 cluster_build_rule=nearest_complete_covalent_fragments max_atoms_rule=reject_not_truncate_fragments charge=0 spin=1 cluster_id=114 pbc="F F F"
H       10.59361891       9.52501097       9.92272979
O       11.21791285      10.41876309      10.34456819
H       12.46906292      10.08695465      11.50173773
O       12.00000000      12.00000000      12.00000000
O       13.80897846      12.94376266      14.08044864
O       12.67227892       9.23514690      12.04897255
H       11.13083714      11.67745850      11.53634570
H       12.96881913      11.67982551      11.65509862
H       13.37672740       9.48598652      12.71764086
H       12.99477602      13.06525339      13.38937000
H       14.29040374      13.78712668      13.73643619
H       11.51647444      10.60291777       9.44113678
12
Lattice="24.0 0.0 0.0 0.0 24.0 0.0 0.0 0.0 24.0" Properties=species:S:1:pos:R:3 sample_kind=unbiased source_xyz=/home/kevinsh/mlip/outputsfull/temperature_ramp/r09_hot_w/temperature_ramp_seed_525385756_from_pressure_equil_seed_353168294_P_15GPa_T_300K_density_0.2_P_15GPa_300K_to_2340K.xyz source_frame=25024 source_time_ps=137.5625 seed_atoms=119 seed_distance_A=nan h2_present_current_frame=F environment_radius_A=3.275775174483942 cluster_build_rule=nearest_complete_covalent_fragments max_atoms_rule=reject_not_truncate_fragments charge=0 spin=1 cluster_id=115 pbc="F F F"
H       12.05569390      13.08067034      13.22844684
O       12.27883538      12.15520538      12.87652723
H       10.40246260      12.45295245      10.43965562
O       12.00465145      14.74215636      11.31603403
H       12.00000000      12.00000000      12.00000000
H        9.02575549      12.22214945      10.64529626
O       12.62229199      12.21688917      10.21388944
H       12.74043561      14.57746426      11.72641532
H       11.72248540      13.75397352      11.62818432
H       11.86758794      12.43635565       9.59834115
H       13.10841354      12.84403403       9.64237320
O        9.86123784      12.15141631      11.15277722
13
Lattice="24.0 0.0 0.0 0.0 24.0 0.0 0.0 0.0 24.0" Properties=species:S:1:pos:R:3 sample_kind=unbiased source_xyz=/home/kevinsh/mlip/outputsfull/temperature_ramp/r09_hot_w/temperature_ramp_seed_525385756_from_pressure_equil_seed_353168294_P_15GPa_T_300K_density_0.2_P_15GPa_300K_to_2340K.xyz source_frame=25025 source_time_ps=137.565 seed_atoms=258 seed_distance_A=nan h2_present_current_frame=F environment_radius_A=3.9665114358654074 cluster_build_rule=nearest_complete_covalent_fragments max_atoms_rule=reject_not_truncate_fragments charge=0 spin=1 cluster_id=116 pbc="F F F"
H       13.23695638      12.47986790      13.85775162
O       12.66788175      15.21170272      14.13611762
H       10.80574176      13.83356203      15.28908488
H       11.34577695      12.18494011      12.56214742
H       12.95391820      13.09711532      12.51072483
H       12.41176826      15.73298727      13.27611360
H       12.37880155      11.03903261      11.89958014
O       11.00253208      13.65639669      14.27424084
H       13.06161262      14.09441224      13.85948938
H       10.12778037      13.86654691      13.87422870
H       11.58580731      14.57327703      14.02799033
O       13.57576212      13.25680133      13.34092093
O       12.00000000      12.00000000      12.00000000
10
Lattice="24.0 0.0 0.0 0.0 24.0 0.0 0.0 0.0 24.0" Properties=species:S:1:pos:R:3 sample_kind=unbiased source_xyz=/home/kevinsh/mlip/outputsfull/temperature_ramp/r09_hot_w/temperature_ramp_seed_525385756_from_pressure_equil_seed_353168294_P_15GPa_T_300K_density_0.2_P_15GPa_300K_to_2340K.xyz source_frame=25026 source_time_ps=137.5675 seed_atoms=13 seed_distance_A=nan h2_present_current_frame=F environment_radius_A=2.862405577990094 cluster_build_rule=nearest_complete_covalent_fragments max_atoms_rule=reject_not_truncate_fragments charge=0 spin=1 cluster_id=117 pbc="F F F"
H       14.16472065      11.99038270      13.33282727
H       12.00000000      12.00000000      12.00000000
H       10.90197269      10.22202898      13.67485737
H       13.80035507      12.87186094      12.01900217
H       12.93930280      10.83379860      11.29003285
H       13.87756463      13.74972467      13.26750950
O       10.88571780      10.46824945      12.72093574
O       14.30348849      12.98079945      12.75939166
O       12.73948509      11.82586160      11.38806439
H       10.12236901      10.87703960      12.18901734
12
Lattice="24.0 0.0 0.0 0.0 24.0 0.0 0.0 0.0 24.0" Properties=species:S:1:pos:R:3 sample_kind=unbiased source_xyz=/home/kevinsh/mlip/outputsfull/temperature_ramp/r09_hot_w/temperature_ramp_seed_525385756_from_pressure_equil_seed_353168294_P_15GPa_T_300K_density_0.2_P_15GPa_300K_to_2340K.xyz source_frame=25027 source_time_ps=137.57 seed_atoms=287 seed_distance_A=nan h2_present_current_frame=F environment_radius_A=3.4242801349824408 cluster_build_rule=nearest_complete_covalent_fragments max_atoms_rule=reject_not_truncate_fragments charge=0 spin=1 cluster_id=118 pbc="F F F"
H       10.74063125      12.82808301      13.24172463
H       10.17753527      11.95992413      11.87701096
H       12.52440095      13.07615354      10.60942378
O       12.60939603      11.35454406      11.63065556
O       14.50426257      13.73758298      11.37883920
H       14.05112283      14.44518595      10.75917155
H       12.04489159      14.14162348       9.88509952
O        9.99296117      12.83684106      12.31284829
H       13.61591309      13.63174521      11.85175353
O       12.68618084      13.21547070       9.60966953
H       13.30629327      11.88602876      11.26388446
H       12.00000000      12.00000000      12.00000000
12
Lattice="24.0 0.0 0.0 0.0 24.0 0.0 0.0 0.0 24.0" Properties=species:S:1:pos:R:3 sample_kind=unbiased source_xyz=/home/kevinsh/mlip/outputsfull/temperature_ramp/r09_hot_w/temperature_ramp_seed_525385756_from_pressure_equil_seed_353168294_P_15GPa_T_300K_density_0.2_P_15GPa_300K_to_2340K.xyz source_frame=25028 source_time_ps=137.5725 seed_atoms=101 seed_distance_A=nan h2_present_current_frame=F environment_radius_A=2.94731183047067 cluster_build_rule=nearest_complete_covalent_fragments max_atoms_rule=reject_not_truncate_fragments charge=0 spin=1 cluster_id=119 pbc="F F F"
O       12.54871775      11.28332159       9.67076966
H       12.00000000      12.00000000      12.00000000
O       12.69063238      10.94997540      13.23089511
O       12.49347752      12.69714494      11.82676013
H       11.71011892      13.21060026      11.96097033
O       10.00190041      10.94300062      11.25818619
H       12.04167667      10.52543953       9.88095059
H        9.31473094      11.50429497      10.89083201
H       11.79122270      11.20468102      13.42419302
H       10.60682957      10.59414099      10.67604345
H       11.66318443      11.66411501       9.34651227
H       13.62678450      11.34153198      13.69267311
10
Lattice="24.0 0.0 0.0 0.0 24.0 0.0 0.0 0.0 24.0" Properties=species:S:1:pos:R:3 sample_kind=unbiased source_xyz=/home/kevinsh/mlip/outputsfull/temperature_ramp/r09_hot_w/temperature_ramp_seed_525385756_from_pressure_equil_seed_353168294_P_15GPa_T_300K_density_0.2_P_15GPa_300K_to_2340K.xyz source_frame=25029 source_time_ps=137.575 seed_atoms=279 seed_distance_A=nan h2_present_current_frame=F environment_radius_A=3.0429330754438126 cluster_build_rule=nearest_complete_covalent_fragments max_atoms_rule=reject_not_truncate_fragments charge=0 spin=1 cluster_id=120 pbc="F F F"
O       13.83466072      13.79232498      11.66184868
H       10.53601625      12.44360013      12.93279503
H       13.31506163      12.88834991      11.81356061
H       14.16341619      14.05597733      12.59332060
H       11.74918090      12.98764744      12.11937654
O       10.09204528      13.27837978      13.34404201
H       10.66159094      13.08749117      14.09204618
H       10.26285846      14.06348569      13.01967428
H       12.67219250      11.75662731      12.74568542
O       12.00000000      12.00000000      12.00000000
12
Lattice="24.0 0.0 0.0 0.0 24.0 0.0 0.0 0.0 24.0" Properties=species:S:1:pos:R:3 sample_kind=unbiased source_xyz=/home/kevinsh/mlip/outputsfull/temperature_ramp/r09_hot_w/temperature_ramp_seed_525385756_from_pressure_equil_seed_353168294_P_15GPa_T_300K_density_0.2_P_15GPa_300K_to_2340K.xyz source_frame=25030 source_time_ps=137.5775 seed_atoms=214 seed_distance_A=nan h2_present_current_frame=F environment_radius_A=3.219496352122956 cluster_build_rule=nearest_complete_covalent_fragments max_atoms_rule=reject_not_truncate_fragments charge=0 spin=1 cluster_id=121 pbc="F F F"
H       11.73244898      10.51075768      12.30862253
H        9.63455818      13.10493559      13.35987811
H       11.33472107      13.48364024      13.08231439
H       12.37226472      11.37331685      15.13589604
H       10.80538247      12.47099042      10.75316029
O       12.36022634      11.03292590      11.84023307
O       11.79320527      10.92789992      14.59155396
H       12.00000000      12.00000000      12.00000000
H       12.06603017      11.28634977      13.75802387
O       10.56996612      12.71980684      13.06616245
H       12.28929443      12.68158212      10.43188484
O       11.61682967      13.19376855      10.82447045
12
Lattice="24.0 0.0 0.0 0.0 24.0 0.0 0.0 0.0 24.0" Properties=species:S:1:pos:R:3 sample_kind=unbiased source_xyz=/home/kevinsh/mlip/outputsfull/temperature_ramp/r09_hot_w/temperature_ramp_seed_525385756_from_pressure_equil_seed_353168294_P_15GPa_T_300K_density_0.2_P_15GPa_300K_to_2340K.xyz source_frame=25031 source_time_ps=137.58 seed_atoms=112 seed_distance_A=nan h2_present_current_frame=F environment_radius_A=3.5474367990805256 cluster_build_rule=nearest_complete_covalent_fragments max_atoms_rule=reject_not_truncate_fragments charge=0 spin=1 cluster_id=122 pbc="F F F"
H       14.86374255      10.06041257      12.78821767
H       12.26487602      14.13871142      10.97274617
H       13.19719355      10.71369997      12.88504335
O       11.70356012      11.36271102      12.82781167
O       12.36906318      11.42806862      10.09574548
H       11.64853400      11.74170608       9.31163172
H       12.00000000      12.00000000      12.00000000
H       11.84351397      12.13147365      13.38875186
H       11.89786009      11.21602384      10.97482486
O       12.93007398      13.98898498      11.83702681
O       13.98295992      10.27975011      13.23904721
H       12.64873689      14.87850815      12.23244603
12
Lattice="24.0 0.0 0.0 0.0 24.0 0.0 0.0 0.0 24.0" Properties=species:S:1:pos:R:3 sample_kind=unbiased source_xyz=/home/kevinsh/mlip/outputsfull/temperature_ramp/r09_hot_w/temperature_ramp_seed_525385756_from_pressure_equil_seed_353168294_P_15GPa_T_300K_density_0.2_P_15GPa_300K_to_2340K.xyz source_frame=25032 source_time_ps=137.5825 seed_atoms=229 seed_distance_A=nan h2_present_current_frame=F environment_radius_A=3.752322400355692 cluster_build_rule=nearest_complete_covalent_fragments max_atoms_rule=reject_not_truncate_fragments charge=0 spin=1 cluster_id=123 pbc="F F F"
H       11.76595769       9.74274142      12.76822623
H       10.83122134       8.46315088      12.45230315
H       11.29790392      11.05314084      13.84117923
H        9.52416439      10.99645714      10.05355720
O       10.63328652       9.38901719      12.73070365
H       12.59089787      11.64849190      14.71015059
H       12.00000000      12.00000000      12.00000000
O       12.17467648      10.82279407      14.17982440
O       12.98642344      12.06820426      11.89219972
H       12.99540778      13.10455206      12.18143984
H       10.76511344      12.06250752      10.48235707
O       10.42493402      11.36662736       9.67907428
12
Lattice="24.0 0.0 0.0 0.0 24.0 0.0 0.0 0.0 24.0" Properties=species:S:1:pos:R:3 sample_kind=unbiased source_xyz=/home/kevinsh/mlip/outputsfull/temperature_ramp/r09_hot_w/temperature_ramp_seed_525385756_from_pressure_equil_seed_353168294_P_15GPa_T_300K_density_0.2_P_15GPa_300K_to_2340K.xyz source_frame=25033 source_time_ps=137.585 seed_atoms=142 seed_distance_A=nan h2_present_current_frame=F environment_radius_A=3.487585620991809 cluster_build_rule=nearest_complete_covalent_fragments max_atoms_rule=reject_not_truncate_fragments charge=0 spin=1 cluster_id=124 pbc="F F F"
O       10.41712980      11.76619599      11.81833018
H       11.82632710      13.42449467      10.52397321
H       11.30996813      12.14692655      13.86018482
H       12.68181805      12.68365912      14.31163988
H       12.00000000      12.00000000      12.00000000
O       12.24976690      13.02362309       9.64930465
O       11.99588000      11.86271574      14.32154974
H       10.56737737      11.04980970      11.13303627
H       13.82168551      11.97280326      12.01139802
H       10.52091845      11.21442154      12.59836271
H       11.79370707      13.46814976       8.84322428
O       12.99016858      12.38400606      12.23151578
12
Lattice="24.0 0.0 0.0 0.0 24.0 0.0 0.0 0.0 24.0" Properties=species:S:1:pos:R:3 sample_kind=unbiased source_xyz=/home/kevinsh/mlip/outputsfull/temperature_ramp/r09_hot_w/temperature_ramp_seed_525385756_from_pressure_equil_seed_353168294_P_15GPa_T_300K_density_0.2_P_15GPa_300K_to_2340K.xyz source_frame=25034 source_time_ps=137.5875 seed_atoms=3 seed_distance_A=nan h2_present_current_frame=F environment_radius_A=3.38834017379847 cluster_build_rule=nearest_complete_covalent_fragments max_atoms_rule=reject_not_truncate_fragments charge=0 spin=1 cluster_id=125 pbc="F F F"
O       12.00000000      12.00000000      12.00000000
O       14.66965581      12.08796784      11.55813335
H       15.24788419      11.42005319      11.22814566
O        9.72618131      12.86457450      10.96066084
H       14.12322019      14.43338023      11.83752940
H       12.16607607      11.16723153      11.57132759
H       14.08066301      11.67426545      12.06157065
H       13.24761857      13.37768488      11.16004494
O       13.39371883      14.35711060      11.16614193
H       10.84091069      12.95717634      10.94158783
H        9.56400313      12.71193563      11.86431327
H       12.21872938      11.78022832      12.97651272
12
Lattice="24.0 0.0 0.0 0.0 24.0 0.0 0.0 0.0 24.0" Properties=species:S:1:pos:R:3 sample_kind=unbiased source_xyz=/home/kevinsh/mlip/outputsfull/temperature_ramp/r09_hot_w/temperature_ramp_seed_525385756_from_pressure_equil_seed_353168294_P_15GPa_T_300K_density_0.2_P_15GPa_300K_to_2340K.xyz source_frame=25035 source_time_ps=137.59 seed_atoms=81 seed_distance_A=nan h2_present_current_frame=F environment_radius_A=3.2578114691052296 cluster_build_rule=nearest_complete_covalent_fragments max_atoms_rule=reject_not_truncate_fragments charge=0 spin=1 cluster_id=126 pbc="F F F"
H       12.69089067      12.30219273      11.46975083
O       12.00000000      12.00000000      12.00000000
H       12.78382933      11.93666875      13.07141563
H       12.43444185      10.51535600       9.81831036
H       13.39374870      10.81455077      10.63219254
H       13.98025113      11.11073794      13.06172214
O       10.31782827      10.61451982      10.83424795
H        9.52511710      10.16440243      10.94223267
H       11.35385458      12.01964507      12.49636559
O       12.92095074      10.05894187      10.69309164
H       10.23283515      10.87363680       9.91771717
O       13.56376497      11.45690289      13.76087672
12
Lattice="24.0 0.0 0.0 0.0 24.0 0.0 0.0 0.0 24.0" Properties=species:S:1:pos:R:3 sample_kind=unbiased source_xyz=/home/kevinsh/mlip/outputsfull/temperature_ramp/r09_hot_w/temperature_ramp_seed_525385756_from_pressure_equil_seed_353168294_P_15GPa_T_300K_density_0.2_P_15GPa_300K_to_2340K.xyz source_frame=25036 source_time_ps=137.5925 seed_atoms=216 seed_distance_A=nan h2_present_current_frame=F environment_radius_A=3.471574715405206 cluster_build_rule=nearest_complete_covalent_fragments max_atoms_rule=reject_not_truncate_fragments charge=0 spin=1 cluster_id=127 pbc="F F F"
O       13.29943493      13.63987332      13.70252331
H       14.24558743      11.37638006      11.09968377
H       13.42004958      10.18634600      11.31158646
H       12.29212676      13.54328264      13.32068691
O       14.13672556      10.47784712      10.62881522
H        8.75021994      12.01331657      10.77910555
H       12.36335538      12.20273084      11.10554664
O       12.00000000      12.00000000      12.00000000
H       10.21447869      11.80976889      11.15743001
H       12.36862097      11.37239991      12.45458526
O        9.40110046      12.27121330      11.48616582
H       13.04805550      14.08694816      14.43728891
12
Lattice="24.0 0.0 0.0 0.0 24.0 0.0 0.0 0.0 24.0" Properties=species:S:1:pos:R:3 sample_kind=unbiased source_xyz=/home/kevinsh/mlip/outputsfull/temperature_ramp/r09_hot_w/temperature_ramp_seed_525385756_from_pressure_equil_seed_353168294_P_15GPa_T_300K_density_0.2_P_15GPa_300K_to_2340K.xyz source_frame=25037 source_time_ps=137.595 seed_atoms=174 seed_distance_A=nan h2_present_current_frame=F environment_radius_A=3.0890749289884805 cluster_build_rule=nearest_complete_covalent_fragments max_atoms_rule=reject_not_truncate_fragments charge=0 spin=1 cluster_id=128 pbc="F F F"
H       12.85388935      12.12383128      12.18917251
H       12.13430163      12.23726750      13.87398620
O       11.96006069      14.01890054      10.15527008
H       11.64177538      13.28423375       9.38280087
H       11.74787106      11.09819506      11.80900344
O       12.00000000      12.00000000      12.00000000
H       11.28289956      13.02115588      14.78228574
H       11.78065326      13.83511439      11.13632720
H       10.31062397      11.57717906       9.44860528
O       11.98628495      12.33534095      14.89548331
H       10.68688870      12.03553969      10.46647946
O        9.80272178      12.02260782      10.22310496
12
Lattice="24.0 0.0 0.0 0.0 24.0 0.0 0.0 0.0 24.0" Properties=species:S:1:pos:R:3 sample_kind=unbiased source_xyz=/home/kevinsh/mlip/outputsfull/temperature_ramp/r09_hot_w/temperature_ramp_seed_525385756_from_pressure_equil_seed_353168294_P_15GPa_T_300K_density_0.2_P_15GPa_300K_to_2340K.xyz source_frame=25038 source_time_ps=137.5975 seed_atoms=142 seed_distance_A=nan h2_present_current_frame=F environment_radius_A=4.583330391697798 cluster_build_rule=nearest_complete_covalent_fragments max_atoms_rule=reject_not_truncate_fragments charge=0 spin=1 cluster_id=129 pbc="F F F"
O       11.29789466      11.78080410       8.13186807
H       12.12225969      12.06460268       7.41875601
H       11.91617342      13.08393771      11.06991182
H       11.43602283      11.48346521      13.67226920
H       12.23135611      12.13062043      15.00956334
H       11.19297274      12.10590378       9.20476733
H       12.00000000      12.00000000      12.00000000
O       11.57638607      12.53025577      10.31124171
O       11.49624701      11.48331224      14.76871002
H       13.24497330      11.79667961      12.60273568
H       11.97764923      13.25224133       9.80982871
O       12.38170576      12.17993474      12.84562777
12
Lattice="24.0 0.0 0.0 0.0 24.0 0.0 0.0 0.0 24.0" Properties=species:S:1:pos:R:3 sample_kind=unbiased source_xyz=/home/kevinsh/mlip/outputsfull/temperature_ramp/r09_hot_w/temperature_ramp_seed_525385756_from_pressure_equil_seed_353168294_P_15GPa_T_300K_density_0.2_P_15GPa_300K_to_2340K.xyz source_frame=25039 source_time_ps=137.6 seed_atoms=79 seed_distance_A=nan h2_present_current_frame=F environment_radius_A=2.965877425933788 cluster_build_rule=nearest_complete_covalent_fragments max_atoms_rule=reject_not_truncate_fragments charge=0 spin=1 cluster_id=130 pbc="F F F"
H       12.00000000      12.00000000      12.00000000
O       12.26425866      13.35160446      12.75460632
H       12.90318658      11.03601691      12.72592730
O       12.96450662      10.26654367      13.29177311
H        9.91412459      10.75019984      13.34332705
H       11.15097292      10.42658392      13.04740870
H       12.68609750      12.27269890      10.88527818
O       10.39543753       9.97014604      13.44965550
H       12.09332851      13.89575044      13.53255873
O       12.37559049      11.52975375      11.24861832
H       12.64994749       9.59383201      12.44988291
H       11.68697587      13.97642652      12.09896278
12
Lattice="24.0 0.0 0.0 0.0 24.0 0.0 0.0 0.0 24.0" Properties=species:S:1:pos:R:3 sample_kind=unbiased source_xyz=/home/kevinsh/mlip/outputsfull/temperature_ramp/r09_hot_w/temperature_ramp_seed_525385756_from_pressure_equil_seed_353168294_P_15GPa_T_300K_density_0.2_P_15GPa_300K_to_2340K.xyz source_frame=25040 source_time_ps=137.6025 seed_atoms=110 seed_distance_A=nan h2_present_current_frame=F environment_radius_A=3.5928752445351195 cluster_build_rule=nearest_complete_covalent_fragments max_atoms_rule=reject_not_truncate_fragments charge=0 spin=1 cluster_id=131 pbc="F F F"
H       12.15327953      11.97594415      10.20680897
H       11.39705705      13.35020638      13.62852074
H       10.97607541      13.33511763      15.17455381
H       13.65213376      11.78733656      12.00356889
O       13.98663917      12.19639033      11.24688981
H       11.53679937      11.92935059      13.48365164
H       12.00000000      12.00000000      12.00000000
H       14.11249866      11.66563569      10.55227614
H       12.66323201      10.77571761      10.64267384
O       11.73272632      12.48820020      12.75489329
O       11.57469906      13.81925934      14.64506323
O       12.35170028      10.97275681       9.74946820
12
Lattice="24.0 0.0 0.0 0.0 24.0 0.0 0.0 0.0 24.0" Properties=species:S:1:pos:R:3 sample_kind=unbiased source_xyz=/home/kevinsh/mlip/outputsfull/temperature_ramp/r09_hot_w/temperature_ramp_seed_525385756_from_pressure_equil_seed_353168294_P_15GPa_T_300K_density_0.2_P_15GPa_300K_to_2340K.xyz source_frame=25041 source_time_ps=137.605 seed_atoms=172 seed_distance_A=nan h2_present_current_frame=F environment_radius_A=2.717223039764504 cluster_build_rule=nearest_complete_covalent_fragments max_atoms_rule=reject_not_truncate_fragments charge=0 spin=1 cluster_id=132 pbc="F F F"
O        9.93171489      12.52865871      12.64569125
O       11.35263375      13.02977184      10.45832643
O       12.58286921      12.37126763      12.50193047
H       10.85327984       9.83614131      11.59536168
H       13.26695024      11.76154403      12.65416113
H        9.72297123      11.89309105      11.84787237
H       11.63514352      13.19334861       9.58626847
H       11.78808528       9.98256145      12.65237414
H       12.00000000      12.00000000      12.00000000
H       11.70063770      11.80877318      10.56068905
O       11.71182952      10.11282573      11.57327010
H        9.68935180      11.87321777      13.36482504
12
Lattice="24.0 0.0 0.0 0.0 24.0 0.0 0.0 0.0 24.0" Properties=species:S:1:pos:R:3 sample_kind=unbiased source_xyz=/home/kevinsh/mlip/outputsfull/temperature_ramp/r09_hot_w/temperature_ramp_seed_525385756_from_pressure_equil_seed_353168294_P_15GPa_T_300K_density_0.2_P_15GPa_300K_to_2340K.xyz source_frame=25042 source_time_ps=137.6075 seed_atoms=52 seed_distance_A=nan h2_present_current_frame=F environment_radius_A=2.940554266345978 cluster_build_rule=nearest_complete_covalent_fragments max_atoms_rule=reject_not_truncate_fragments charge=0 spin=1 cluster_id=133 pbc="F F F"
H       14.26942530      12.50077636      11.33273097
H       10.44001176      13.36058576      13.36747167
H       11.98298634      13.84064000       9.70683313
H       11.25610051      13.11355274      11.06142965
O       12.81208180      11.76932652      12.45708536
H       12.00000000      12.00000000      12.00000000
H       12.78789031      11.29770847      13.23790844
O       11.89660392      13.13566701      10.32177655
H       11.05035332      11.94570848      13.94194413
O       14.33426565      13.45248380      11.24810598
H       13.24552416      13.33450853      11.22596486
O       10.43514461      12.42593480      13.24456251
12
Lattice="24.0 0.0 0.0 0.0 24.0 0.0 0.0 0.0 24.0" Properties=species:S:1:pos:R:3 sample_kind=unbiased source_xyz=/home/kevinsh/mlip/outputsfull/temperature_ramp/r09_hot_w/temperature_ramp_seed_525385756_from_pressure_equil_seed_353168294_P_15GPa_T_300K_density_0.2_P_15GPa_300K_to_2340K.xyz source_frame=25043 source_time_ps=137.61 seed_atoms=47 seed_distance_A=nan h2_present_current_frame=F environment_radius_A=3.605136930092662 cluster_build_rule=nearest_complete_covalent_fragments max_atoms_rule=reject_not_truncate_fragments charge=0 spin=1 cluster_id=134 pbc="F F F"
O        9.52354741      11.72885276      10.74860675
H       12.00000000      12.00000000      12.00000000
H       13.10308912      13.50846512      11.93023110
H       11.36741701       9.63967974      12.09419125
O       11.72169343      10.38299487      11.60509268
H       13.63442222      13.54056310      10.71632566
H       11.61406966      13.71193383      12.48244695
O       13.38515141      14.40637934      11.30303984
H       12.46942400       9.65072508      11.33712127
H        9.95818405      12.07504477      11.60943025
H        8.60532585      11.64400533      10.83962614
O       11.28628334      12.73338404      12.40750901
10
Lattice="24.0 0.0 0.0 0.0 24.0 0.0 0.0 0.0 24.0" Properties=species:S:1:pos:R:3 sample_kind=unbiased source_xyz=/home/kevinsh/mlip/outputsfull/temperature_ramp/r09_hot_w/temperature_ramp_seed_525385756_from_pressure_equil_seed_353168294_P_15GPa_T_300K_density_0.2_P_15GPa_300K_to_2340K.xyz source_frame=25044 source_time_ps=137.6125 seed_atoms=194 seed_distance_A=nan h2_present_current_frame=F environment_radius_A=3.252257616102746 cluster_build_rule=nearest_complete_covalent_fragments max_atoms_rule=reject_not_truncate_fragments charge=0 spin=1 cluster_id=135 pbc="F F F"
O       12.45662676      12.71534735      12.54192412
H       11.27119523      10.91988046      14.97982634
H       10.22623819      12.89791900      11.50726275
O       10.50109317      12.12131884      10.69794087
H       12.00000000      12.00000000      12.00000000
O       11.15618668      11.80465778      14.31387205
H       10.90881179      12.99060740      10.19212262
H       10.86331018      11.85608007      13.41524910
H       12.37777412      12.12245927      13.86334177
H       13.23845779      12.51848411      13.00833475
12
Lattice="24.0 0.0 0.0 0.0 24.0 0.0 0.0 0.0 24.0" Properties=species:S:1:pos:R:3 sample_kind=unbiased source_xyz=/home/kevinsh/mlip/outputsfull/temperature_ramp/r09_hot_w/temperature_ramp_seed_525385756_from_pressure_equil_seed_353168294_P_15GPa_T_300K_density_0.2_P_15GPa_300K_to_2340K.xyz source_frame=25045 source_time_ps=137.615 seed_atoms=49 seed_distance_A=nan h2_present_current_frame=F environment_radius_A=3.513683300398124 cluster_build_rule=nearest_complete_covalent_fragments max_atoms_rule=reject_not_truncate_fragments charge=0 spin=1 cluster_id=136 pbc="F F F"
H       13.41717749      10.62535078      12.91554766
H       10.31744284      10.27277630      12.44723950
H       12.00000000      12.00000000      12.00000000
O       14.11322822      10.01037837      13.28992808
H       12.31536467      11.97021361      10.79578185
H       12.71549982      14.12573714      14.06006410
H        9.92677646      11.93711089      13.09187323
O       12.05109069      12.64624889      11.38259111
O        9.95652821      11.14901754      12.49319680
O       12.57262049      13.89986577      13.15402233
H       11.82245739      14.43284766      12.88303078
H       14.38298824       9.46370575      12.48430246
13
Lattice="24.0 0.0 0.0 0.0 24.0 0.0 0.0 0.0 24.0" Properties=species:S:1:pos:R:3 sample_kind=unbiased source_xyz=/home/kevinsh/mlip/outputsfull/temperature_ramp/r09_hot_w/temperature_ramp_seed_525385756_from_pressure_equil_seed_353168294_P_15GPa_T_300K_density_0.2_P_15GPa_300K_to_2340K.xyz source_frame=25046 source_time_ps=137.6175 seed_atoms=183 seed_distance_A=nan h2_present_current_frame=F environment_radius_A=4.26250264737956 cluster_build_rule=nearest_complete_covalent_fragments max_atoms_rule=reject_not_truncate_fragments charge=0 spin=1 cluster_id=137 pbc="F F F"
H       10.60945455      12.53911011      10.40304381
O       13.95863821      12.43805514      13.70981525
O       10.03284592      13.28237887      10.38056051
H       12.79861250      10.83963454      16.02302111
H       11.81880408      12.30666320      12.86169621
H        9.63393598      13.41577910       9.52240998
O       12.00000000      12.00000000      12.00000000
H       13.48426899      11.84457259      13.07993714
O       12.57024278      11.54536773      15.54774199
H       12.36891722      12.73640050      11.59538414
H       12.24774302      11.41588505      14.50571680
H       13.88019635      11.66494094      15.32932524
H       15.00899456      12.29335776      14.02247942
12
Lattice="24.0 0.0 0.0 0.0 24.0 0.0 0.0 0.0 24.0" Properties=species:S:1:pos:R:3 sample_kind=unbiased source_xyz=/home/kevinsh/mlip/outputsfull/temperature_ramp/r09_hot_w/temperature_ramp_seed_525385756_from_pressure_equil_seed_353168294_P_15GPa_T_300K_density_0.2_P_15GPa_300K_to_2340K.xyz source_frame=25047 source_time_ps=137.62 seed_atoms=176 seed_distance_A=nan h2_present_current_frame=F environment_radius_A=3.215679764627457 cluster_build_rule=nearest_complete_covalent_fragments max_atoms_rule=reject_not_truncate_fragments charge=0 spin=1 cluster_id=138 pbc="F F F"
H       12.67255516      14.07817786       9.98670965
H       13.38681705      12.85790439      12.01108512
H       13.47121507      13.35141571      13.49297204
H       13.20152320      12.80876424      10.46678274
H       11.69327138      14.60596987      13.85888002
O       11.88081853      13.67453904      14.25755137
O       13.80383549      12.74268778      12.83621478
H       12.00000000      12.00000000      12.00000000
O       11.24156542      12.35345532      11.69568302
H       11.51536769      13.09525938      11.17939768
O       13.24371426      13.70629985      10.62636823
H       11.23341337      13.32255438      13.49863081
12
Lattice="24.0 0.0 0.0 0.0 24.0 0.0 0.0 0.0 24.0" Properties=species:S:1:pos:R:3 sample_kind=unbiased source_xyz=/home/kevinsh/mlip/outputsfull/temperature_ramp/r09_hot_w/temperature_ramp_seed_525385756_from_pressure_equil_seed_353168294_P_15GPa_T_300K_density_0.2_P_15GPa_300K_to_2340K.xyz source_frame=25048 source_time_ps=137.6225 seed_atoms=135 seed_distance_A=nan h2_present_current_frame=F environment_radius_A=4.4477623843331475 cluster_build_rule=nearest_complete_covalent_fragments max_atoms_rule=reject_not_truncate_fragments charge=0 spin=1 cluster_id=139 pbc="F F F"
H       10.96760220      10.85815784      14.29267392
O       10.44634369      11.69287276      14.22417294
H       12.43764389      12.29554507      11.13675252
O       10.70903019      14.68248324      12.74882065
O       12.00000000      12.00000000      12.00000000
H       11.51947775      14.04235038      12.80635457
O        8.84929316      13.11884113      14.93322880
H       12.01631634      10.98455211      12.11620301
H       10.31988744      11.79316194      13.23624400
H        8.62706587      12.37129756      14.33101279
H       10.85769504      14.78528424      13.64014580
H        9.67400806      12.68444259      14.67399244
12
Lattice="24.0 0.0 0.0 0.0 24.0 0.0 0.0 0.0 24.0" Properties=species:S:1:pos:R:3 sample_kind=unbiased source_xyz=/home/kevinsh/mlip/outputsfull/temperature_ramp/r09_hot_w/temperature_ramp_seed_525385756_from_pressure_equil_seed_353168294_P_15GPa_T_300K_density_0.2_P_15GPa_300K_to_2340K.xyz source_frame=25049 source_time_ps=137.625 seed_atoms=22 seed_distance_A=nan h2_present_current_frame=F environment_radius_A=3.315095286723886 cluster_build_rule=nearest_complete_covalent_fragments max_atoms_rule=reject_not_truncate_fragments charge=0 spin=1 cluster_id=140 pbc="F F F"
H       12.00000000      12.00000000      12.00000000
H       13.63372956      10.68529619      11.17216144
H       12.83203953      11.15646181      13.60594219
O       12.95923536      12.67625985       9.82081178
H       13.16850456      12.12502082       8.90018974
O       11.76364999      12.86372495      11.91234517
H       13.00549781       9.74959165      11.91825112
O       12.92737397      10.71616364      11.93319386
H       12.01697891      10.82013696      14.81392363
H       12.96581221      11.95446235      10.35448836
H       10.87103341      13.17342752      12.38082653
O       12.84384685      10.87999359      14.52969067
10
Lattice="24.0 0.0 0.0 0.0 24.0 0.0 0.0 0.0 24.0" Properties=species:S:1:pos:R:3 sample_kind=unbiased source_xyz=/home/kevinsh/mlip/outputsfull/temperature_ramp/r09_hot_w/temperature_ramp_seed_525385756_from_pressure_equil_seed_353168294_P_15GPa_T_300K_density_0.2_P_15GPa_300K_to_2340K.xyz source_frame=25050 source_time_ps=137.6275 seed_atoms=235 seed_distance_A=nan h2_present_current_frame=F environment_radius_A=3.4254911415862206 cluster_build_rule=nearest_complete_covalent_fragments max_atoms_rule=reject_not_truncate_fragments charge=0 spin=1 cluster_id=141 pbc="F F F"
H       11.34053798      12.40863767      10.28498773
O       10.60329723      12.71491454       9.73334279
H       11.03110529      12.72163819       8.79461844
O       11.44116290      12.63919169      12.54681956
H       12.20881202       9.09836480      12.61523804
O       12.41130476      10.13121535      12.08097668
H       12.00000000      12.00000000      12.00000000
H       11.91882708       9.27787750      11.40183718
H       13.63253581      10.46360347      11.68052079
H       10.46809897      12.49002236      12.65599329
12
Lattice="24.0 0.0 0.0 0.0 24.0 0.0 0.0 0.0 24.0" Properties=species:S:1:pos:R:3 sample_kind=unbiased source_xyz=/home/kevinsh/mlip/outputsfull/temperature_ramp/r09_hot_w/temperature_ramp_seed_525385756_from_pressure_equil_seed_353168294_P_15GPa_T_300K_density_0.2_P_15GPa_300K_to_2340K.xyz source_frame=25051 source_time_ps=137.63 seed_atoms=274 seed_distance_A=nan h2_present_current_frame=F environment_radius_A=3.829721272929109 cluster_build_rule=nearest_complete_covalent_fragments max_atoms_rule=reject_not_truncate_fragments charge=0 spin=1 cluster_id=142 pbc="F F F"
O       13.75355524      10.52425582      11.43603338
H       11.95425081      13.72742401      13.46713789
H       10.87456372      12.70137716      15.59280229
H       11.29829763      11.94025436      14.09205992
H       12.99532844      10.42009220      10.69489857
O       10.72950110      12.76351452      14.48387123
O       12.23118949      14.76132231      13.67575736
H       10.47561152      11.81518765      11.37538128
H       11.55745598      14.95031551      14.28207235
H       13.87300210       9.71184657      11.37294517
H       12.00000000      12.00000000      12.00000000
O       11.36773489      12.22967827      11.34719787
15
Lattice="24.0 0.0 0.0 0.0 24.0 0.0 0.0 0.0 24.0" Properties=species:S:1:pos:R:3 sample_kind=unbiased source_xyz=/home/kevinsh/mlip/outputsfull/temperature_ramp/r09_hot_w/temperature_ramp_seed_525385756_from_pressure_equil_seed_353168294_P_15GPa_T_300K_density_0.2_P_15GPa_300K_to_2340K.xyz source_frame=25052 source_time_ps=137.6325 seed_atoms=63 seed_distance_A=nan h2_present_current_frame=F environment_radius_A=3.338249293982159 cluster_build_rule=nearest_complete_covalent_fragments max_atoms_rule=reject_not_truncate_fragments charge=0 spin=1 cluster_id=143 pbc="F F F"
O       12.82268554      13.21633476       9.69788414
H        9.83927358      14.40428517      11.34019343
O       14.59449254      12.73664149      11.00382492
O       12.72184779       9.85592033      10.88186884
H       14.21742418      12.40124316      11.76007487
H       13.64444996      12.87563411      10.10343344
O       10.52507963      13.91715213      11.90004050
H       12.61986895      12.85862249      11.93875508
O       12.00000000      12.00000000      12.00000000
H       13.51318113       9.67383909      10.46458619
H       14.90464194      11.93700287      10.35592125
H       12.46184450      11.49554989      12.82453488
H       12.54386235      12.60664618       9.11051977
H       11.01256238      13.42304120      11.16901668
H       12.45263712      10.75027165      10.90277347
12
Lattice="24.0 0.0 0.0 0.0 24.0 0.0 0.0 0.0 24.0" Properties=species:S:1:pos:R:3 sample_kind=unbiased source_xyz=/home/kevinsh/mlip/outputsfull/temperature_ramp/r09_hot_w/temperature_ramp_seed_525385756_from_pressure_equil_seed_353168294_P_15GPa_T_300K_density_0.2_P_15GPa_300K_to_2340K.xyz source_frame=25053 source_time_ps=137.635 seed_atoms=193 seed_distance_A=nan h2_present_current_frame=F environment_radius_A=3.1140177486787755 cluster_build_rule=nearest_complete_covalent_fragments max_atoms_rule=reject_not_truncate_fragments charge=0 spin=1 cluster_id=144 pbc="F F F"
H       11.70305809      10.09421146      11.16989241
H       10.38608311      11.83311029      10.69094876
O       12.25761268       9.61530509      11.76798126
H       13.01866656      12.53287189      10.98116083
H       10.63864473      10.97182731       9.97755222
H       11.10228411      13.89686793      13.00254015
O       10.20407400      11.78835376       9.82728551
H       12.00000000      12.00000000      12.00000000
O       10.66028711      13.52487331      12.16567197
H        9.76071151      13.28955303      12.52979734
O       12.92524621      12.09214102      11.78840633
H       12.71911285       9.10929924      11.09234788
12
Lattice="24.0 0.0 0.0 0.0 24.0 0.0 0.0 0.0 24.0" Properties=species:S:1:pos:R:3 sample_kind=unbiased source_xyz=/home/kevinsh/mlip/outputsfull/temperature_ramp/r09_hot_w/temperature_ramp_seed_525385756_from_pressure_equil_seed_353168294_P_15GPa_T_300K_density_0.2_P_15GPa_300K_to_2340K.xyz source_frame=25054 source_time_ps=137.6375 seed_atoms=40 seed_distance_A=nan h2_present_current_frame=F environment_radius_A=2.93683502189102 cluster_build_rule=nearest_complete_covalent_fragments max_atoms_rule=reject_not_truncate_fragments charge=0 spin=1 cluster_id=145 pbc="F F F"
H       10.44463283      12.06500525      11.15419611
H       10.37621064      13.03262888      10.06665080
H       12.90910051      12.12345536      10.53928954
H       13.75142031      11.94175639      12.43257938
H       12.00000000      12.00000000      12.00000000
O        9.83122144      12.46631200      10.63992705
H       11.08785771      12.52499561      14.28111733
H       14.66043562      10.85659383      12.48959636
H       11.22111927      13.53065039      13.37182098
O       12.61409731      12.60472077      11.49448062
O       14.30134227      11.47385763      12.98962502
O       11.82243135      12.79475202      13.75377477
13
Lattice="24.0 0.0 0.0 0.0 24.0 0.0 0.0 0.0 24.0" Properties=species:S:1:pos:R:3 sample_kind=unbiased source_xyz=/home/kevinsh/mlip/outputsfull/temperature_ramp/r09_hot_w/temperature_ramp_seed_525385756_from_pressure_equil_seed_353168294_P_15GPa_T_300K_density_0.2_P_15GPa_300K_to_2340K.xyz source_frame=25055 source_time_ps=137.64 seed_atoms=282 seed_distance_A=nan h2_present_current_frame=F environment_radius_A=3.9979561510437724 cluster_build_rule=nearest_complete_covalent_fragments max_atoms_rule=reject_not_truncate_fragments charge=0 spin=1 cluster_id=146 pbc="F F F"
H       13.22080468      12.74100784      13.04823147
H       11.81467367      11.42301461      13.60254069
H       11.93990279      10.51980952      14.75568722
H       12.48671193      12.26524860      11.32327552
O       14.03346456      12.87746310      13.74957063
O       15.64495902      11.77737925      12.85788347
O       11.40099253      11.30093744      14.61492001
H       14.69667625      12.12926293      13.28670433
H       12.36866424      11.13511544      12.05877208
H       14.45324243      13.57306075      13.35145523
H       15.37018483      10.78636986      12.47423007
O       12.00000000      12.00000000      12.00000000
H       15.99426864      12.15848848      12.06597579
12
Lattice="24.0 0.0 0.0 0.0 24.0 0.0 0.0 0.0 24.0" Properties=species:S:1:pos:R:3 sample_kind=unbiased source_xyz=/home/kevinsh/mlip/outputsfull/temperature_ramp/r09_hot_w/temperature_ramp_seed_525385756_from_pressure_equil_seed_353168294_P_15GPa_T_300K_density_0.2_P_15GPa_300K_to_2340K.xyz source_frame=25056 source_time_ps=137.6425 seed_atoms=150 seed_distance_A=nan h2_present_current_frame=F environment_radius_A=3.048187579867836 cluster_build_rule=nearest_complete_covalent_fragments max_atoms_rule=reject_not_truncate_fragments charge=0 spin=1 cluster_id=147 pbc="F F F"
H       11.99128093      12.39321217      11.08812807
H       11.55153451      12.25018617      12.85779034
H       12.06736077      10.61633026      10.67633393
H       12.48353744      10.13889587      11.77923066
O       12.39146843      10.16891499       9.86567965
O       12.00000000      12.00000000      12.00000000
O       13.00309856       9.76981889      12.55699397
H       11.28397001      14.69164714      11.66192348
H       12.49597077      13.72570306      12.34237384
H       13.26929176       9.98192189      10.10060360
H       12.32257161       9.28916438      12.99235475
O       12.23029801      14.75570256      11.94722561
12
Lattice="24.0 0.0 0.0 0.0 24.0 0.0 0.0 0.0 24.0" Properties=species:S:1:pos:R:3 sample_kind=unbiased source_xyz=/home/kevinsh/mlip/outputsfull/temperature_ramp/r09_hot_w/temperature_ramp_seed_525385756_from_pressure_equil_seed_353168294_P_15GPa_T_300K_density_0.2_P_15GPa_300K_to_2340K.xyz source_frame=25057 source_time_ps=137.645 seed_atoms=185 seed_distance_A=nan h2_present_current_frame=F environment_radius_A=3.5067346742167524 cluster_build_rule=nearest_complete_covalent_fragments max_atoms_rule=reject_not_truncate_fragments charge=0 spin=1 cluster_id=148 pbc="F F F"
O       10.41805956      12.28337690      14.14639846
H       11.16972187      12.33627182      13.43600594
H       12.49635308      12.80931074      13.20038805
O       11.19769876      11.42073720      10.18360525
H       12.05616318      15.34049508      10.93457689
H       10.88361981      10.59827225      10.46716675
H       11.54569100      13.68148036      11.38121190
H       12.36184141      11.23570718      10.50579219
O       12.78579548      12.12109135      12.70299744
H       12.00000000      12.00000000      12.00000000
O       11.96507268      14.45286401      10.68596908
H       10.37329488      12.95917674      14.76675649
12
Lattice="24.0 0.0 0.0 0.0 24.0 0.0 0.0 0.0 24.0" Properties=species:S:1:pos:R:3 sample_kind=unbiased source_xyz=/home/kevinsh/mlip/outputsfull/temperature_ramp/r09_hot_w/temperature_ramp_seed_525385756_from_pressure_equil_seed_353168294_P_15GPa_T_300K_density_0.2_P_15GPa_300K_to_2340K.xyz source_frame=25058 source_time_ps=137.6475 seed_atoms=295 seed_distance_A=nan h2_present_current_frame=F environment_radius_A=3.7143036037161075 cluster_build_rule=nearest_complete_covalent_fragments max_atoms_rule=reject_not_truncate_fragments charge=0 spin=1 cluster_id=149 pbc="F F F"
O       12.06910296      11.28796333      11.21218425
H       11.02900403      14.04204484      13.08002728
O       11.52621586      13.45496182      12.52497775
H       13.92112092      11.91370571      13.01416190
H       12.65369632      11.28265430      10.50444378
H       10.75512017      10.83545680      12.23605588
O       14.71755942      11.84229347      12.37319102
H       11.71228484      12.91589477      13.28604181
H       15.61697032      11.63743130      12.76296846
H        9.54746450      11.81595206      13.41989135
O        9.75687658      11.07082724      12.78621055
H       12.00000000      12.00000000      12.00000000
12
Lattice="24.0 0.0 0.0 0.0 24.0 0.0 0.0 0.0 24.0" Properties=species:S:1:pos:R:3 sample_kind=unbiased source_xyz=/home/kevinsh/mlip/outputsfull/temperature_ramp/r09_hot_w/temperature_ramp_seed_525385756_from_pressure_equil_seed_353168294_P_15GPa_T_300K_density_0.2_P_15GPa_300K_to_2340K.xyz source_frame=25059 source_time_ps=137.65 seed_atoms=98 seed_distance_A=nan h2_present_current_frame=F environment_radius_A=2.8837821939070003 cluster_build_rule=nearest_complete_covalent_fragments max_atoms_rule=reject_not_truncate_fragments charge=0 spin=1 cluster_id=150 pbc="F F F"
H       12.23904650      13.46893268      12.82257887
O        9.82712528      12.46958319      10.36730310
H        9.71352879      12.98391617      11.12972321
H       11.51276390      13.76759026      14.22585386
H        9.77031282      10.48078059      11.92142173
H       12.00000000      12.00000000      12.00000000
H       10.33786207      11.72673896      11.04026612
H       12.03804477      12.93923951      11.04897095
O       10.39539520      10.34195463      11.35896285
O       12.63655233      12.59820905      11.68490977
O       11.93957800      14.14218439      13.51096729
H       11.28079094      10.30059426      11.79338224
11
Lattice="24.0 0.0 0.0 0.0 24.0 0.0 0.0 0.0 24.0" Properties=species:S:1:pos:R:3 sample_kind=unbiased source_xyz=/home/kevinsh/mlip/outputsfull/temperature_ramp/r09_hot_w/temperature_ramp_seed_525385756_from_pressure_equil_seed_353168294_P_15GPa_T_300K_density_0.2_P_15GPa_300K_to_2340K.xyz source_frame=25060 source_time_ps=137.6525 seed_atoms=35 seed_distance_A=nan h2_present_current_frame=F environment_radius_A=2.647907952712394 cluster_build_rule=nearest_complete_covalent_fragments max_atoms_rule=reject_not_truncate_fragments charge=0 spin=1 cluster_id=151 pbc="F F F"
H       11.90999220      12.94142372      10.85566610
H       12.00000000      12.00000000      12.00000000
O       12.59283144      11.23281676      13.81355957
H       12.13954706      11.79508879      14.47433734
O       13.16395989      13.88624730      13.38649349
H       13.12494757      10.60289833      11.04161262
H       12.27439621      10.46527234      14.14026500
O       12.19660463      12.01250417      11.00305868
O       13.16872178       9.82498593      11.68741946
H       13.37572823      13.23966648      12.76418470
H       12.44934382      10.31305170      12.17439088
12
Lattice="24.0 0.0 0.0 0.0 24.0 0.0 0.0 0.0 24.0" Properties=species:S:1:pos:R:3 sample_kind=unbiased source_xyz=/home/kevinsh/mlip/outputsfull/temperature_ramp/r09_hot_w/temperature_ramp_seed_525385756_from_pressure_equil_seed_353168294_P_15GPa_T_300K_density_0.2_P_15GPa_300K_to_2340K.xyz source_frame=25061 source_time_ps=137.655 seed_atoms=23 seed_distance_A=nan h2_present_current_frame=F environment_radius_A=3.5361473622771813 cluster_build_rule=nearest_complete_covalent_fragments max_atoms_rule=reject_not_truncate_fragments charge=0 spin=1 cluster_id=152 pbc="F F F"
H       11.79913335       8.58063566      12.87860019
H       12.13833995       9.93742015      12.20272481
H       12.00000000      12.00000000      12.00000000
O       13.48966076      11.83580526      13.10562980
O       11.44665689       9.26797978      12.39270490
H       10.53590263      11.60262323      11.83642197
H       13.30839341      11.24114712       9.32126359
O       11.20102277      12.26286698      11.74896558
H       14.05953938      10.91163019      12.94602696
H       14.34310687      12.27825534      13.11991312
H       13.50264359      12.16934025      10.63517806
O       13.72397570      11.41292034      10.18333370
12
Lattice="24.0 0.0 0.0 0.0 24.0 0.0 0.0 0.0 24.0" Properties=species:S:1:pos:R:3 sample_kind=unbiased source_xyz=/home/kevinsh/mlip/outputsfull/temperature_ramp/r09_hot_w/temperature_ramp_seed_525385756_from_pressure_equil_seed_353168294_P_15GPa_T_300K_density_0.2_P_15GPa_300K_to_2340K.xyz source_frame=25062 source_time_ps=137.6575 seed_atoms=116 seed_distance_A=nan h2_present_current_frame=F environment_radius_A=4.303265297505375 cluster_build_rule=nearest_complete_covalent_fragments max_atoms_rule=reject_not_truncate_fragments charge=0 spin=1 cluster_id=153 pbc="F F F"
O       11.51632266       9.69543527      12.28460265
H       10.41295015      11.95473612      12.75166106
H       10.29590858      14.66754981      14.91519171
H       12.00000000      12.00000000      12.00000000
O       12.45210698      11.74062320      11.10331179
O       10.99117193      13.88923873      14.75666005
H       12.09196674       9.53937387      11.61052091
H       11.39534490      10.66150840      12.52460156
H       11.86121481      10.93563529      10.60045790
H       11.73127661      13.84320207      15.45884343
H       10.54290587      12.92285531      14.26218822
O       10.72280693      11.92303787      13.67166134
12
Lattice="24.0 0.0 0.0 0.0 24.0 0.0 0.0 0.0 24.0" Properties=species:S:1:pos:R:3 sample_kind=unbiased source_xyz=/home/kevinsh/mlip/outputsfull/temperature_ramp/r09_hot_w/temperature_ramp_seed_525385756_from_pressure_equil_seed_353168294_P_15GPa_T_300K_density_0.2_P_15GPa_300K_to_2340K.xyz source_frame=25063 source_time_ps=137.66 seed_atoms=148 seed_distance_A=nan h2_present_current_frame=F environment_radius_A=3.347096392399177 cluster_build_rule=nearest_complete_covalent_fragments max_atoms_rule=reject_not_truncate_fragments charge=0 spin=1 cluster_id=154 pbc="F F F"
H       10.63599189      14.39401449      10.09967614
H       12.91898813      12.44024800      10.89787869
O       12.65123978      11.30207247      14.37701298
H       12.78847606      11.39195000      13.37504300
H       12.00000000      12.00000000      12.00000000
H       11.62228509      10.15666537      12.95226841
O        9.99306665      13.69390498      10.59890917
H       10.79165896      13.05931307      10.83029779
O       12.21809523       9.73982354      12.31953496
O       12.11053466      12.60266995      11.42099256
H       12.05843228      10.26650822      11.38925493
H       13.11678516      12.18027369      14.47531097
11
Lattice="24.0 0.0 0.0 0.0 24.0 0.0 0.0 0.0 24.0" Properties=species:S:1:pos:R:3 sample_kind=unbiased source_xyz=/home/kevinsh/mlip/outputsfull/temperature_ramp/r09_hot_w/temperature_ramp_seed_525385756_from_pressure_equil_seed_353168294_P_15GPa_T_300K_density_0.2_P_15GPa_300K_to_2340K.xyz source_frame=25064 source_time_ps=137.6625 seed_atoms=40 seed_distance_A=nan h2_present_current_frame=F environment_radius_A=2.846171060773483 cluster_build_rule=nearest_complete_covalent_fragments max_atoms_rule=reject_not_truncate_fragments charge=0 spin=1 cluster_id=155 pbc="F F F"
H       12.86265668      11.57937329      10.64122900
O       11.77324368      14.57285652      11.05536236
H       12.00000000      12.00000000      12.00000000
H       10.70391094      11.62029369      13.53865752
H       11.70894867      10.28183982      12.32234893
H       10.59570168      12.80972361      12.84326608
O       12.47091133      12.19741303      11.04927582
O       11.00753614       9.96925089      11.54614209
H       11.76141500      13.33751804      11.02809349
O       11.19552169      12.22461989      13.11862549
H       12.67089426      14.69462416      11.37582754
12
Lattice="24.0 0.0 0.0 0.0 24.0 0.0 0.0 0.0 24.0" Properties=species:S:1:pos:R:3 sample_kind=unbiased source_xyz=/home/kevinsh/mlip/outputsfull/temperature_ramp/r09_hot_w/temperature_ramp_seed_525385756_from_pressure_equil_seed_353168294_P_15GPa_T_300K_density_0.2_P_15GPa_300K_to_2340K.xyz source_frame=25065 source_time_ps=137.665 seed_atoms=119 seed_distance_A=nan h2_present_current_frame=F environment_radius_A=3.466706089354909 cluster_build_rule=nearest_complete_covalent_fragments max_atoms_rule=reject_not_truncate_fragments charge=0 spin=1 cluster_id=156 pbc="F F F"
H       11.12977857      13.46433415      12.57201649
O        9.80278191      10.60005105      12.36214660
O       11.38964312      12.82167485      11.79676536
H       12.04643120      12.26163289      14.05357564
O       14.33710169      12.53774143      12.41821921
H       12.00000000      12.00000000      12.00000000
H        9.47465726      11.21704460      13.03028385
H       10.83758196      10.97057742      11.79935062
H       13.56138596      13.01658337      12.57404131
H       12.87696613      10.99903007      13.44945867
H       15.16000560      13.17235202      12.81117598
O       12.16178380      11.35301488      14.03205686
12
Lattice="24.0 0.0 0.0 0.0 24.0 0.0 0.0 0.0 24.0" Properties=species:S:1:pos:R:3 sample_kind=unbiased source_xyz=/home/kevinsh/mlip/outputsfull/temperature_ramp/r09_hot_w/temperature_ramp_seed_525385756_from_pressure_equil_seed_353168294_P_15GPa_T_300K_density_0.2_P_15GPa_300K_to_2340K.xyz source_frame=25066 source_time_ps=137.6675 seed_atoms=51 seed_distance_A=nan h2_present_current_frame=F environment_radius_A=3.458724709328396 cluster_build_rule=nearest_complete_covalent_fragments max_atoms_rule=reject_not_truncate_fragments charge=0 spin=1 cluster_id=157 pbc="F F F"
H       11.03146943      13.39782073       9.14963295
H       11.77756114      12.25569695       9.94050776
O       12.00000000      12.00000000      12.00000000
H       12.28052847      13.05659143      12.19168058
H       13.44716615      10.49472976       9.24270998
H       11.58890217      11.50936384      12.70608071
O        9.64784772      11.47092804      10.63207534
O       11.64889007      12.61050610       9.03658511
O       12.66362454      10.53694271       9.80833105
H       10.26157178      11.00658493      11.19192160
H       13.00524114      10.95190331      10.63990826
H        8.97806759      10.88108382      11.00153574
12
Lattice="24.0 0.0 0.0 0.0 24.0 0.0 0.0 0.0 24.0" Properties=species:S:1:pos:R:3 sample_kind=unbiased source_xyz=/home/kevinsh/mlip/outputsfull/temperature_ramp/r09_hot_w/temperature_ramp_seed_525385756_from_pressure_equil_seed_353168294_P_15GPa_T_300K_density_0.2_P_15GPa_300K_to_2340K.xyz source_frame=25067 source_time_ps=137.67 seed_atoms=194 seed_distance_A=nan h2_present_current_frame=F environment_radius_A=2.943325854207648 cluster_build_rule=nearest_complete_covalent_fragments max_atoms_rule=reject_not_truncate_fragments charge=0 spin=1 cluster_id=158 pbc="F F F"
O       10.74710915      13.63523834      11.43314234
O       11.82628183      12.00186740      12.98597129
H       12.75673800      10.63963974      11.53101554
H       11.07029480      14.32458400      10.78599337
H       13.55277653      12.35862680       9.64451592
H       10.59289213      13.74375589      12.71736109
H       14.29763928      10.16200869      11.92378466
H       12.00000000      12.00000000      12.00000000
H       12.72471406      13.47101801      10.09749395
O       12.88075517      12.46747611      10.35558710
H       11.92438653      12.88200643      13.37004405
O       13.62868778      10.51984591      11.26585356
12
Lattice="24.0 0.0 0.0 0.0 24.0 0.0 0.0 0.0 24.0" Properties=species:S:1:pos:R:3 sample_kind=unbiased source_xyz=/home/kevinsh/mlip/outputsfull/temperature_ramp/r09_hot_w/temperature_ramp_seed_525385756_from_pressure_equil_seed_353168294_P_15GPa_T_300K_density_0.2_P_15GPa_300K_to_2340K.xyz source_frame=25068 source_time_ps=137.6725 seed_atoms=142 seed_distance_A=nan h2_present_current_frame=F environment_radius_A=3.2750492682791763 cluster_build_rule=nearest_complete_covalent_fragments max_atoms_rule=reject_not_truncate_fragments charge=0 spin=1 cluster_id=159 pbc="F F F"
O        9.55907577      12.43748950      11.63128676
H       12.24405955      14.06851228      12.23963786
O       13.07123810      13.98205978      12.92851626
H       11.38849159      10.81208634      14.61011888
H       12.38387098      11.80571562      13.96044474
H       12.00000000      12.00000000      12.00000000
H       13.22074032      14.89982220      12.90927005
O       11.58668135      11.80783889      14.41694607
H        9.74717807      12.70566690      12.56524206
H       12.94295611      12.64147868      10.85225524
H       10.40678413      12.64469108      11.18556838
O       12.40907386      11.86444213      11.07419097
10
Lattice="24.0 0.0 0.0 0.0 24.0 0.0 0.0 0.0 24.0" Properties=species:S:1:pos:R:3 sample_kind=unbiased source_xyz=/home/kevinsh/mlip/outputsfull/temperature_ramp/r09_hot_w/temperature_ramp_seed_525385756_from_pressure_equil_seed_353168294_P_15GPa_T_300K_density_0.2_P_15GPa_300K_to_2340K.xyz source_frame=25069 source_time_ps=137.675 seed_atoms=232 seed_distance_A=nan h2_present_current_frame=F environment_radius_A=3.638740403090939 cluster_build_rule=nearest_complete_covalent_fragments max_atoms_rule=reject_not_truncate_fragments charge=0 spin=1 cluster_id=160 pbc="F F F"
H       13.56676984      10.46170712      11.03862284
H       13.48580691      12.71439241      14.08094967
O       12.91589420      11.92680194      14.38799697
H       13.35681093      11.64088348      15.35716117
O       13.24126269      10.78545526      11.94929849
O       11.54608916      12.52554125      12.71516704
H       13.69725139      11.57971329      12.32996775
H       12.04397614      12.19755155      13.65178021
H       12.00000000      12.00000000      12.00000000
H       11.80916921      13.31767134      12.94064057
11
Lattice="24.0 0.0 0.0 0.0 24.0 0.0 0.0 0.0 24.0" Properties=species:S:1:pos:R:3 sample_kind=unbiased source_xyz=/home/kevinsh/mlip/outputsfull/temperature_ramp/r09_hot_w/temperature_ramp_seed_525385756_from_pressure_equil_seed_353168294_P_15GPa_T_300K_density_0.2_P_15GPa_300K_to_2340K.xyz source_frame=25070 source_time_ps=137.6775 seed_atoms=186 seed_distance_A=nan h2_present_current_frame=F environment_radius_A=3.5234655618339374 cluster_build_rule=nearest_complete_covalent_fragments max_atoms_rule=reject_not_truncate_fragments charge=0 spin=1 cluster_id=161 pbc="F F F"
H       10.84287738      13.06990162      11.48857947
H       11.22844545      14.39482702      11.15222665
O       10.42212138      13.85596796      11.26605356
O       13.62015637      10.36637027      11.91859743
H       13.08669761      12.50897004      10.28166128
H       14.02243146      12.63461535       9.18542296
H       12.23701048      12.43589594      12.88424305
H       13.97469280      10.54286142      11.01010269
O       13.98709081      12.38664968      10.01935186
O       12.00000000      12.00000000      12.00000000
H       12.68843853      11.12200331      11.55363509
10
Lattice="24.0 0.0 0.0 0.0 24.0 0.0 0.0 0.0 24.0" Properties=species:S:1:pos:R:3 sample_kind=unbiased source_xyz=/home/kevinsh/mlip/outputsfull/temperature_ramp/r09_hot_w/temperature_ramp_seed_525385756_from_pressure_equil_seed_353168294_P_15GPa_T_300K_density_0.2_P_15GPa_300K_to_2340K.xyz source_frame=25071 source_time_ps=137.68 seed_atoms=83 seed_distance_A=nan h2_present_current_frame=F environment_radius_A=2.911795760207374 cluster_build_rule=nearest_complete_covalent_fragments max_atoms_rule=reject_not_truncate_fragments charge=0 spin=1 cluster_id=162 pbc="F F F"
H       13.50906397      14.00608735      12.82814382
H       11.01930061      10.81083029      12.71962280
H       12.00000000      12.00000000      12.00000000
H       12.45611191      13.74923796      11.53697173
O       11.42038536      11.86218436      12.74453775
O       12.54516168      13.83903039      12.56629676
H       13.00490766      11.59330904       9.29753490
H       12.24148216      12.96243770      13.01683887
H       11.81610113      11.86622692       9.95220604
O       12.79132011      12.00792809      10.13900183
12
Lattice="24.0 0.0 0.0 0.0 24.0 0.0 0.0 0.0 24.0" Properties=species:S:1:pos:R:3 sample_kind=unbiased source_xyz=/home/kevinsh/mlip/outputsfull/temperature_ramp/r09_hot_w/temperature_ramp_seed_525385756_from_pressure_equil_seed_353168294_P_15GPa_T_300K_density_0.2_P_15GPa_300K_to_2340K.xyz source_frame=25072 source_time_ps=137.6825 seed_atoms=189 seed_distance_A=nan h2_present_current_frame=F environment_radius_A=3.6374482641988144 cluster_build_rule=nearest_complete_covalent_fragments max_atoms_rule=reject_not_truncate_fragments charge=0 spin=1 cluster_id=163 pbc="F F F"
H       11.80640728      12.59700505      11.20736300
H       12.54475503      11.25850171      11.51064402
H        9.21299172      12.41092407      12.10451822
H       13.24710023      14.94906897      12.26829428
H       10.55985290      11.30840512      15.26782844
O       12.00000000      12.00000000      12.00000000
H       13.15764900      13.26018355      11.94121765
O        9.14930830      12.62282596      12.98496286
O       12.91443671      14.38797182      11.62479502
H       11.49402759      11.35162286      13.78655790
H       10.03810524      12.90515939      13.32021800
O       10.74406515      11.01303672      14.25823768
12
Lattice="24.0 0.0 0.0 0.0 24.0 0.0 0.0 0.0 24.0" Properties=species:S:1:pos:R:3 sample_kind=unbiased source_xyz=/home/kevinsh/mlip/outputsfull/temperature_ramp/r09_hot_w/temperature_ramp_seed_525385756_from_pressure_equil_seed_353168294_P_15GPa_T_300K_density_0.2_P_15GPa_300K_to_2340K.xyz source_frame=25073 source_time_ps=137.685 seed_atoms=181 seed_distance_A=nan h2_present_current_frame=F environment_radius_A=2.861765313484363 cluster_build_rule=nearest_complete_covalent_fragments max_atoms_rule=reject_not_truncate_fragments charge=0 spin=1 cluster_id=164 pbc="F F F"
H       13.59709363      12.32129913      12.52763490
H       10.92195381      13.21166537      13.94738941
H       10.46936274      11.75445751      13.93531122
H        9.99317303      10.80530250      10.34620313
H       11.84410025      10.32245145      13.22933073
O       10.74626103      10.74273413      11.31198355
O       10.47668285      12.52624645      13.31892461
H       12.00000000      12.00000000      12.00000000
O       11.91960633      10.55333408      14.12625899
H       11.45822714      11.36427156      11.26742480
O       12.99487141      12.25847860      11.80582475
H       12.83369566      10.86291190      14.28490440
10
Lattice="24.0 0.0 0.0 0.0 24.0 0.0 0.0 0.0 24.0" Properties=species:S:1:pos:R:3 sample_kind=unbiased source_xyz=/home/kevinsh/mlip/outputsfull/temperature_ramp/r09_hot_w/temperature_ramp_seed_525385756_from_pressure_equil_seed_353168294_P_15GPa_T_300K_density_0.2_P_15GPa_300K_to_2340K.xyz source_frame=25074 source_time_ps=137.6875 seed_atoms=107 seed_distance_A=nan h2_present_current_frame=F environment_radius_A=2.829619127769829 cluster_build_rule=nearest_complete_covalent_fragments max_atoms_rule=reject_not_truncate_fragments charge=0 spin=1 cluster_id=165 pbc="F F F"
H       10.83122828      12.84885889      12.98262581
H       12.00000000      12.00000000      12.00000000
O       13.57254976      13.34063097      11.13441417
O       10.30699305      11.87460501      13.30114334
H       12.13300615      10.58041138      11.60753644
H       11.11600983      11.25131396      13.36084267
H       12.71998523      13.27881690      12.30232362
H       13.17882433      14.06140151      10.46125329
O       11.69089560      11.27945825      11.40187089
H       13.01900728      12.68107267      10.62962009
12
Lattice="24.0 0.0 0.0 0.0 24.0 0.0 0.0 0.0 24.0" Properties=species:S:1:pos:R:3 sample_kind=unbiased source_xyz=/home/kevinsh/mlip/outputsfull/temperature_ramp/r09_hot_w/temperature_ramp_seed_525385756_from_pressure_equil_seed_353168294_P_15GPa_T_300K_density_0.2_P_15GPa_300K_to_2340K.xyz source_frame=25075 source_time_ps=137.69 seed_atoms=136 seed_distance_A=nan h2_present_current_frame=F environment_radius_A=4.020255352996225 cluster_build_rule=nearest_complete_covalent_fragments max_atoms_rule=reject_not_truncate_fragments charge=0 spin=1 cluster_id=166 pbc="F F F"
H       10.87885482      12.47722531       8.16884579
H       12.26946815      11.57631192      13.23700375
O       11.43344564      11.88781234      12.71541443
H       10.82084340      14.13366236      10.97125875
H       11.91275381      13.39537773       9.99741024
H       12.00000000      12.00000000      12.00000000
H       10.46695369      12.84093332       9.73049508
O       11.19219909      10.17328014       9.63859435
O       11.77799886      13.92613805      10.90534199
H       11.24094320       9.45673347      10.25618298
O       11.22458117      13.02472969       8.90850052
H       10.80901390      10.96301653      10.38310654
12
Lattice="24.0 0.0 0.0 0.0 24.0 0.0 0.0 0.0 24.0" Properties=species:S:1:pos:R:3 sample_kind=unbiased source_xyz=/home/kevinsh/mlip/outputsfull/temperature_ramp/r09_hot_w/temperature_ramp_seed_525385756_from_pressure_equil_seed_353168294_P_15GPa_T_300K_density_0.2_P_15GPa_300K_to_2340K.xyz source_frame=25076 source_time_ps=137.6925 seed_atoms=36 seed_distance_A=nan h2_present_current_frame=F environment_radius_A=3.47791957191868 cluster_build_rule=nearest_complete_covalent_fragments max_atoms_rule=reject_not_truncate_fragments charge=0 spin=1 cluster_id=167 pbc="F F F"
O       12.00000000      12.00000000      12.00000000
H       14.87626496      12.04363867      10.04523145
O       14.22078641      11.39990659      10.32779809
H       14.23847604      12.47816405      12.05250487
H       13.71568786      10.04671640      11.82916861
H       11.11637272      12.11101154      11.60534190
O       14.77366588      12.10439523      12.74354830
H       13.50794095      11.78655045      10.81837346
H       12.23687064       9.68212185      12.10812507
H       11.59414976      11.58027790      12.85065570
H       14.03218762      11.49507894      12.86331476
O       13.01636437       9.65556486      12.51321641
12
Lattice="24.0 0.0 0.0 0.0 24.0 0.0 0.0 0.0 24.0" Properties=species:S:1:pos:R:3 sample_kind=unbiased source_xyz=/home/kevinsh/mlip/outputsfull/temperature_ramp/r09_hot_w/temperature_ramp_seed_525385756_from_pressure_equil_seed_353168294_P_15GPa_T_300K_density_0.2_P_15GPa_300K_to_2340K.xyz source_frame=25077 source_time_ps=137.695 seed_atoms=87 seed_distance_A=nan h2_present_current_frame=F environment_radius_A=3.234756035204129 cluster_build_rule=nearest_complete_covalent_fragments max_atoms_rule=reject_not_truncate_fragments charge=0 spin=1 cluster_id=168 pbc="F F F"
H       10.58675696      12.22666945      10.54370135
O       11.33242954       9.46431484      11.34272235
O       12.00000000      12.00000000      12.00000000
H       12.00430735      12.81240361      11.13248389
H       10.37945476      12.78684032       9.47724013
H       12.89508681      12.20765174      12.44047399
O        9.87796570      12.73858582      10.42274422
H       10.32514660      14.14062854      13.02050725
O        9.77457482      14.33252134      12.26546859
H       10.36160381       9.74292667      11.67874014
H       11.81188019      10.26563555      11.24087880
H       10.13198001      13.39457623      11.85233234
11
Lattice="24.0 0.0 0.0 0.0 24.0 0.0 0.0 0.0 24.0" Properties=species:S:1:pos:R:3 sample_kind=unbiased source_xyz=/home/kevinsh/mlip/outputsfull/temperature_ramp/r09_hot_w/temperature_ramp_seed_525385756_from_pressure_equil_seed_353168294_P_15GPa_T_300K_density_0.2_P_15GPa_300K_to_2340K.xyz source_frame=25078 source_time_ps=137.6975 seed_atoms=273 seed_distance_A=nan h2_present_current_frame=F environment_radius_A=4.627501335492768 cluster_build_rule=nearest_complete_covalent_fragments max_atoms_rule=reject_not_truncate_fragments charge=0 spin=1 cluster_id=169 pbc="F F F"
O       11.78271764       8.13942253      14.54214449
H       12.31648099       8.87821062      13.84075129
O       12.40018112       9.93110242      13.09795934
H       11.67425425       8.85080406      15.05988594
H       11.00616750      14.55738707      10.71501528
O       11.20512956      14.15481859      11.51181567
H       12.28574010      11.15604278      11.53942744
H       11.73661515      11.67236965      12.93911680
H       11.67036973      13.36732435      11.65730401
H       12.97871768      10.63458689      12.89428250
O       12.00000000      12.00000000      12.00000000
12
Lattice="24.0 0.0 0.0 0.0 24.0 0.0 0.0 0.0 24.0" Properties=species:S:1:pos:R:3 sample_kind=unbiased source_xyz=/home/kevinsh/mlip/outputsfull/temperature_ramp/r09_hot_w/temperature_ramp_seed_525385756_from_pressure_equil_seed_353168294_P_15GPa_T_300K_density_0.2_P_15GPa_300K_to_2340K.xyz source_frame=25079 source_time_ps=137.7 seed_atoms=125 seed_distance_A=nan h2_present_current_frame=F environment_radius_A=3.104473863883354 cluster_build_rule=nearest_complete_covalent_fragments max_atoms_rule=reject_not_truncate_fragments charge=0 spin=1 cluster_id=170 pbc="F F F"
O       11.70227584      13.18189005      10.30515902
O       13.20884328      12.74369289      14.19612121
H       11.69652419      12.68793586       9.57332264
H       13.37431479      10.51076832      12.21701850
O       11.59150683      11.45532459      12.74827414
H       12.00000000      12.00000000      12.00000000
H       12.51010461      12.32137870      13.79740487
H       14.02016216      10.00099500      10.86717489
O       14.06206029      10.58474878      11.57209572
H       13.67278861      11.93911561      14.61454190
H       10.70471422      11.14628764      12.65496336
H       10.74882533      13.13289865      10.62492352
10
Lattice="24.0 0.0 0.0 0.0 24.0 0.0 0.0 0.0 24.0" Properties=species:S:1:pos:R:3 sample_kind=unbiased source_xyz=/home/kevinsh/mlip/outputsfull/temperature_ramp/r09_hot_w/temperature_ramp_seed_525385756_from_pressure_equil_seed_353168294_P_15GPa_T_300K_density_0.2_P_15GPa_300K_to_2340K.xyz source_frame=25080 source_time_ps=137.7025 seed_atoms=83 seed_distance_A=nan h2_present_current_frame=F environment_radius_A=3.137680432069884 cluster_build_rule=nearest_complete_covalent_fragments max_atoms_rule=reject_not_truncate_fragments charge=0 spin=1 cluster_id=171 pbc="F F F"
O       13.37087567       9.55130692      12.60765487
H       13.72825277      12.86292382      12.17580948
H       12.57603882      10.56949491      12.60501727
H       12.00000000      12.00000000      12.00000000
H       13.68478588       9.77745867      11.84482189
H       13.14635887      14.10959110      12.91203342
O       11.83497297      11.40074447      12.80508366
O       13.31411215      13.27450293      12.94418603
H       12.61746087      12.66548613      12.96923343
H       12.67109949       8.94937172      12.29720545
11
Lattice="24.0 0.0 0.0 0.0 24.0 0.0 0.0 0.0 24.0" Properties=species:S:1:pos:R:3 sample_kind=unbiased source_xyz=/home/kevinsh/mlip/outputsfull/temperature_ramp/r09_hot_w/temperature_ramp_seed_525385756_from_pressure_equil_seed_353168294_P_15GPa_T_300K_density_0.2_P_15GPa_300K_to_2340K.xyz source_frame=25081 source_time_ps=137.705 seed_atoms=236 seed_distance_A=nan h2_present_current_frame=F environment_radius_A=4.682648924269003 cluster_build_rule=nearest_complete_covalent_fragments max_atoms_rule=reject_not_truncate_fragments charge=0 spin=1 cluster_id=172 pbc="F F F"
H       11.78070437       9.14301982      11.22516002
H       11.38233113       7.60108370      10.51837201
H       13.25360911      11.19457745      13.77058158
O       12.37135313       9.50708187      11.96605681
H       12.84797222      12.46837870      12.98223724
O       12.80167785      11.95163988      13.84822652
O       11.01957210       8.49587642      10.67896160
H       12.03983127      10.82816571      10.55726531
H       12.00000000      12.00000000      12.00000000
H       12.65213309      10.33114411      11.83680144
O       12.03546838      11.64138552      11.14852832
12
Lattice="24.0 0.0 0.0 0.0 24.0 0.0 0.0 0.0 24.0" Properties=species:S:1:pos:R:3 sample_kind=unbiased source_xyz=/home/kevinsh/mlip/outputsfull/temperature_ramp/r09_hot_w/temperature_ramp_seed_525385756_from_pressure_equil_seed_353168294_P_15GPa_T_300K_density_0.2_P_15GPa_300K_to_2340K.xyz source_frame=25082 source_time_ps=137.7075 seed_atoms=194 seed_distance_A=nan h2_present_current_frame=F environment_radius_A=3.8213607010522415 cluster_build_rule=nearest_complete_covalent_fragments max_atoms_rule=reject_not_truncate_fragments charge=0 spin=1 cluster_id=173 pbc="F F F"
O       10.63321512      13.09952456      11.52766323
O       12.55198539      11.35112795      12.52182181
H       13.51532353      10.17711026      12.01405168
H       11.40007442      13.27884512      10.82698444
O       14.61158423      11.76085142      13.95493735
H       10.61369627      12.09765627      11.47078676
H       13.79148296      11.84090613      13.32283499
H       14.50323464       9.51823107      11.20062397
H       12.00000000      12.00000000      12.00000000
H       14.53600912      12.07567511      14.85757391
H       12.11746609      11.45242800      13.42186058
O       13.62091504       9.88630007      11.11474846
12
Lattice="24.0 0.0 0.0 0.0 24.0 0.0 0.0 0.0 24.0" Properties=species:S:1:pos:R:3 sample_kind=unbiased source_xyz=/home/kevinsh/mlip/outputsfull/temperature_ramp/r09_hot_w/temperature_ramp_seed_525385756_from_pressure_equil_seed_353168294_P_15GPa_T_300K_density_0.2_P_15GPa_300K_to_2340K.xyz source_frame=25083 source_time_ps=137.71 seed_atoms=138 seed_distance_A=nan h2_present_current_frame=F environment_radius_A=3.4809341423957965 cluster_build_rule=nearest_complete_covalent_fragments max_atoms_rule=reject_not_truncate_fragments charge=0 spin=1 cluster_id=174 pbc="F F F"
H       14.21200737      12.88891809       9.46351611
O       11.95532984      14.62089869      11.16048747
O        9.77565741      12.04608051      11.06733114
H       11.44807780      15.06918061      12.08807419
H       10.97844799      12.30631675      11.58038145
H        9.22875416      12.05690952      10.32389780
H       11.80388120      13.75903605      11.29124704
O       12.00000000      12.00000000      12.00000000
H       13.03780101      13.01296016      10.70066145
H       11.93366153      11.05189313      11.69353806
O       13.84580890      13.46171878      10.20215773
H        9.22750547      11.85088314      11.74622904
10
Lattice="24.0 0.0 0.0 0.0 24.0 0.0 0.0 0.0 24.0" Properties=species:S:1:pos:R:3 sample_kind=unbiased source_xyz=/home/kevinsh/mlip/outputsfull/temperature_ramp/r09_hot_w/temperature_ramp_seed_525385756_from_pressure_equil_seed_353168294_P_15GPa_T_300K_density_0.2_P_15GPa_300K_to_2340K.xyz source_frame=25084 source_time_ps=137.7125 seed_atoms=285 seed_distance_A=nan h2_present_current_frame=F environment_radius_A=3.502197910347283 cluster_build_rule=nearest_complete_covalent_fragments max_atoms_rule=reject_not_truncate_fragments charge=0 spin=1 cluster_id=175 pbc="F F F"
H       12.42872981       9.29600576      12.35863498
H       11.85084799      10.05976233      13.28959021
H       12.74856622      12.65524499      11.64229197
O       12.33591396       9.35429348      13.30886151
H       11.52199773       8.83492842      13.42099470
O       10.55326408      10.25980177      11.83540261
H        9.78016606       9.48515035      11.88910090
H       11.32902895      12.37120507      11.33357970
H        9.90333920      10.86003660      11.41325077
O       12.00000000      12.00000000      12.00000000
12
Lattice="24.0 0.0 0.0 0.0 24.0 0.0 0.0 0.0 24.0" Properties=species:S:1:pos:R:3 sample_kind=unbiased source_xyz=/home/kevinsh/mlip/outputsfull/temperature_ramp/r09_hot_w/temperature_ramp_seed_525385756_from_pressure_equil_seed_353168294_P_15GPa_T_300K_density_0.2_P_15GPa_300K_to_2340K.xyz source_frame=25085 source_time_ps=137.715 seed_atoms=112 seed_distance_A=nan h2_present_current_frame=F environment_radius_A=3.3207850264167735 cluster_build_rule=nearest_complete_covalent_fragments max_atoms_rule=reject_not_truncate_fragments charge=0 spin=1 cluster_id=176 pbc="F F F"
H       13.07044471       9.68221560      13.10415234
H       13.65081410      13.00730083      13.17755502
H       13.65243082       9.83985461      11.76752103
O       11.07620543      12.26172806      11.71531957
O       13.71427712      10.75449785       9.72650105
H       12.00000000      12.00000000      12.00000000
H       10.25474278      12.55848234      12.49489460
H       14.81227514      12.22969348      12.49109200
H       13.10917741      11.01425414      10.50761433
H       14.56618249      11.14276838      10.07451966
O       12.88197241      10.24560233      12.21607783
O       13.92397312      12.62701096      12.34443489
12
Lattice="24.0 0.0 0.0 0.0 24.0 0.0 0.0 0.0 24.0" Properties=species:S:1:pos:R:3 sample_kind=unbiased source_xyz=/home/kevinsh/mlip/outputsfull/temperature_ramp/r09_hot_w/temperature_ramp_seed_525385756_from_pressure_equil_seed_353168294_P_15GPa_T_300K_density_0.2_P_15GPa_300K_to_2340K.xyz source_frame=25086 source_time_ps=137.7175 seed_atoms=166 seed_distance_A=nan h2_present_current_frame=F environment_radius_A=2.9659048910649757 cluster_build_rule=nearest_complete_covalent_fragments max_atoms_rule=reject_not_truncate_fragments charge=0 spin=1 cluster_id=177 pbc="F F F"
O       10.25171948      12.92744580      13.01151749
H       12.53054473      13.20647053      10.81209700
O       12.46421925      12.31725997      11.08312668
H       13.17538434      13.43111507      12.79630915
H       11.72479637      10.01283693      12.73547221
H       10.36345798      13.63801968      12.34261371
O       12.79696833      13.16917575      13.73272623
H       12.00000000      12.00000000      12.00000000
H       11.57136751      11.41211004      13.60058982
H        9.34061695      12.76321326      13.06854066
H       13.44555346      12.62026754      14.11393834
O       11.07928068      10.75403734      13.13433517
12
Lattice="24.0 0.0 0.0 0.0 24.0 0.0 0.0 0.0 24.0" Properties=species:S:1:pos:R:3 sample_kind=unbiased source_xyz=/home/kevinsh/mlip/outputsfull/temperature_ramp/r09_hot_w/temperature_ramp_seed_525385756_from_pressure_equil_seed_353168294_P_15GPa_T_300K_density_0.2_P_15GPa_300K_to_2340K.xyz source_frame=25087 source_time_ps=137.72 seed_atoms=28 seed_distance_A=nan h2_present_current_frame=F environment_radius_A=3.1692771657084142 cluster_build_rule=nearest_complete_covalent_fragments max_atoms_rule=reject_not_truncate_fragments charge=0 spin=1 cluster_id=178 pbc="F F F"
H       12.00000000      12.00000000      12.00000000
H       12.49832288      11.01247565      11.11175154
H       12.87643714      11.80062160      13.43549390
O       13.39107914      12.09812327      12.68082811
H        8.98866401      12.93159019      12.32910941
O        9.84262507      13.12309805      11.94488417
O       11.60600161      11.37318075      11.32654337
H       12.01045960      13.97340962      11.91403220
H       12.20553032      14.95316231      12.37803529
H       13.84362871      12.88110827      12.86515548
O       12.83690666      14.45579451      11.87623069
H       10.15265593      12.54516364      11.11426572
12
Lattice="24.0 0.0 0.0 0.0 24.0 0.0 0.0 0.0 24.0" Properties=species:S:1:pos:R:3 sample_kind=unbiased source_xyz=/home/kevinsh/mlip/outputsfull/temperature_ramp/r09_hot_w/temperature_ramp_seed_525385756_from_pressure_equil_seed_353168294_P_15GPa_T_300K_density_0.2_P_15GPa_300K_to_2340K.xyz source_frame=25088 source_time_ps=137.7225 seed_atoms=117 seed_distance_A=nan h2_present_current_frame=F environment_radius_A=5.548180231763949 cluster_build_rule=nearest_complete_covalent_fragments max_atoms_rule=reject_not_truncate_fragments charge=0 spin=1 cluster_id=179 pbc="F F F"
O       13.31218224      14.52533547      12.82516271
H       12.93333209      11.69708196      15.18413985
H       12.96498285      15.22811228      12.20161584
H       13.87529334      15.49902688      13.49351354
H       14.12235260      16.55625899      14.34913331
H       11.83613285      12.38132605      11.01514213
O       12.00000000      12.00000000      12.00000000
H       11.91328645      11.52510160      14.25104024
H       12.54342345      13.94074071      13.04970726
O       12.84601109      11.79515639      14.25558221
O       14.60531042      16.24200093      13.47838087
H       13.09622996      12.05589655      11.90628555
12
Lattice="24.0 0.0 0.0 0.0 24.0 0.0 0.0 0.0 24.0" Properties=species:S:1:pos:R:3 sample_kind=unbiased source_xyz=/home/kevinsh/mlip/outputsfull/temperature_ramp/r09_hot_w/temperature_ramp_seed_525385756_from_pressure_equil_seed_353168294_P_15GPa_T_300K_density_0.2_P_15GPa_300K_to_2340K.xyz source_frame=25089 source_time_ps=137.725 seed_atoms=16 seed_distance_A=nan h2_present_current_frame=F environment_radius_A=4.131949083035516 cluster_build_rule=nearest_complete_covalent_fragments max_atoms_rule=reject_not_truncate_fragments charge=0 spin=1 cluster_id=180 pbc="F F F"
H       11.16794746      11.99954547      10.58475640
H       11.33613581      14.15135170      14.33523971
O       11.93328257      11.64759412      11.07996398
H       12.00000000      12.00000000      12.00000000
O       12.61341091      11.65504222      13.73523649
O       11.46069613      13.92317570      13.05796730
H        9.86532901      13.75609559      15.07120681
H       11.03999652      14.44071595      12.47279966
H       11.65468365      11.96838119      13.81106628
O       10.72026954      14.32488066      15.06128081
H       12.75539051      11.87007209      14.68449288
H       12.33804391      14.44626656      13.15324206
12
Lattice="24.0 0.0 0.0 0.0 24.0 0.0 0.0 0.0 24.0" Properties=species:S:1:pos:R:3 sample_kind=unbiased source_xyz=/home/kevinsh/mlip/outputsfull/temperature_ramp/r09_hot_w/temperature_ramp_seed_525385756_from_pressure_equil_seed_353168294_P_15GPa_T_300K_density_0.2_P_15GPa_300K_to_2340K.xyz source_frame=25090 source_time_ps=137.7275 seed_atoms=161 seed_distance_A=nan h2_present_current_frame=F environment_radius_A=3.1449403187854563 cluster_build_rule=nearest_complete_covalent_fragments max_atoms_rule=reject_not_truncate_fragments charge=0 spin=1 cluster_id=181 pbc="F F F"
H       13.52256811      12.50685445      11.30110259
O       10.65504841      13.72317167      13.29296964
H       11.06457583      13.47283387      14.26343766
H       10.82790241      10.57781759      11.38880840
H       11.07771385      13.32159134      12.65607324
O       13.71594644      12.17823943      10.02466531
H       12.00000000      12.00000000      12.00000000
O       10.72115837      11.64943512      11.42720928
H       11.08433038      12.28247336      10.79769431
H       13.18955168      12.78016614       9.40371835
O       12.91461472      12.56187834      12.04772101
H       14.46091649      12.61236119      10.14001252
12
Lattice="24.0 0.0 0.0 0.0 24.0 0.0 0.0 0.0 24.0" Properties=species:S:1:pos:R:3 sample_kind=unbiased source_xyz=/home/kevinsh/mlip/outputsfull/temperature_ramp/r09_hot_w/temperature_ramp_seed_525385756_from_pressure_equil_seed_353168294_P_15GPa_T_300K_density_0.2_P_15GPa_300K_to_2340K.xyz source_frame=25091 source_time_ps=137.73 seed_atoms=205 seed_distance_A=nan h2_present_current_frame=F environment_radius_A=2.9774014680758687 cluster_build_rule=nearest_complete_covalent_fragments max_atoms_rule=reject_not_truncate_fragments charge=0 spin=1 cluster_id=182 pbc="F F F"
H       11.37542531      14.13900686      13.97470900
H       11.32553371      13.25938124      12.95277729
H       11.58359257      13.15947942      11.02189571
O       12.76593091      11.84078643       9.92965957
H       12.28614687      10.77199051      11.33627178
H       13.62718856      11.49761241      10.01201669
O       10.99652114      13.38622222      13.84429981
H       12.27429083      14.42459610      11.86112627
H       12.00000000      12.00000000      12.00000000
O       11.47384537      11.17028504      11.75684978
H       12.30259962      11.12345221       9.44754102
O       11.71404739      14.19074003      11.07829026
12
Lattice="24.0 0.0 0.0 0.0 24.0 0.0 0.0 0.0 24.0" Properties=species:S:1:pos:R:3 sample_kind=unbiased source_xyz=/home/kevinsh/mlip/outputsfull/temperature_ramp/r09_hot_w/temperature_ramp_seed_525385756_from_pressure_equil_seed_353168294_P_15GPa_T_300K_density_0.2_P_15GPa_300K_to_2340K.xyz source_frame=25092 source_time_ps=137.7325 seed_atoms=137 seed_distance_A=nan h2_present_current_frame=F environment_radius_A=3.334907065294733 cluster_build_rule=nearest_complete_covalent_fragments max_atoms_rule=reject_not_truncate_fragments charge=0 spin=1 cluster_id=183 pbc="F F F"
O       11.12825182      12.19748109       9.43062980
H       12.37980068      13.25055130      12.81976500
H       14.49476893      12.00215608      10.75832707
H       11.33822194      13.22164724      11.60730491
O       12.60779388      12.69731499      11.96488004
H       12.00000000      12.00000000      12.00000000
H       11.83280169      11.89586406      10.08690456
H       11.64544731      14.44377671      11.03662679
O       10.87938716      13.80253023      10.98920526
H       11.68977155      12.93812678       8.81483413
H       13.15129438      12.61749351      10.18899469
O       14.14022895      12.40049920       9.91523162
12
Lattice="24.0 0.0 0.0 0.0 24.0 0.0 0.0 0.0 24.0" Properties=species:S:1:pos:R:3 sample_kind=unbiased source_xyz=/home/kevinsh/mlip/outputsfull/temperature_ramp/r09_hot_w/temperature_ramp_seed_525385756_from_pressure_equil_seed_353168294_P_15GPa_T_300K_density_0.2_P_15GPa_300K_to_2340K.xyz source_frame=25093 source_time_ps=137.735 seed_atoms=33 seed_distance_A=nan h2_present_current_frame=F environment_radius_A=3.3522967826929735 cluster_build_rule=nearest_complete_covalent_fragments max_atoms_rule=reject_not_truncate_fragments charge=0 spin=1 cluster_id=184 pbc="F F F"
O       12.12456372      13.96459565      10.24302553
O       12.00000000      12.00000000      12.00000000
H       12.91913319      13.41710309      10.42914202
H       13.77105919      11.92378927      12.58682647
H       11.86083467      11.19316685      11.46517612
H        8.86411909      12.01014748      12.81788972
O       14.43860265      11.98529115      13.16711264
H       11.84489234      13.97497180       9.29568461
H       14.49711066      10.99730717      13.19675095
H       10.24583727      12.43711886      12.74968472
O        9.80436172      11.90622130      13.39682532
H       11.69260481      11.55367910      12.79163304
12
Lattice="24.0 0.0 0.0 0.0 24.0 0.0 0.0 0.0 24.0" Properties=species:S:1:pos:R:3 sample_kind=unbiased source_xyz=/home/kevinsh/mlip/outputsfull/temperature_ramp/r09_hot_w/temperature_ramp_seed_525385756_from_pressure_equil_seed_353168294_P_15GPa_T_300K_density_0.2_P_15GPa_300K_to_2340K.xyz source_frame=25094 source_time_ps=137.7375 seed_atoms=108 seed_distance_A=nan h2_present_current_frame=F environment_radius_A=3.3170930830283774 cluster_build_rule=nearest_complete_covalent_fragments max_atoms_rule=reject_not_truncate_fragments charge=0 spin=1 cluster_id=185 pbc="F F F"
H       12.47915036      11.40371645      11.29755932
H       11.33964611      11.49267186      13.35983165
H        9.40923176      13.98585495      12.58941205
O       12.00000000      12.00000000      12.00000000
H       12.21698724      13.64600207      13.39913605
H       13.00258825      12.54973341      14.14860863
H       10.73057440      11.28515547      14.93339108
O       12.87098771      13.54751636      14.08148331
H       10.44257249      12.74111967      12.47002099
H       12.81853611      12.52680930      12.13073092
O        9.61242449      13.20037337      11.92538877
O       10.78363429      11.75991708      14.10002045
12
Lattice="24.0 0.0 0.0 0.0 24.0 0.0 0.0 0.0 24.0" Properties=species:S:1:pos:R:3 sample_kind=unbiased source_xyz=/home/kevinsh/mlip/outputsfull/temperature_ramp/r09_hot_w/temperature_ramp_seed_525385756_from_pressure_equil_seed_353168294_P_15GPa_T_300K_density_0.2_P_15GPa_300K_to_2340K.xyz source_frame=25095 source_time_ps=137.74 seed_atoms=290 seed_distance_A=nan h2_present_current_frame=F environment_radius_A=2.7893341046758047 cluster_build_rule=nearest_complete_covalent_fragments max_atoms_rule=reject_not_truncate_fragments charge=0 spin=1 cluster_id=186 pbc="F F F"
H       14.36142980      12.64576253      13.33679647
O       13.00025039      10.09450717      12.01201395
H       13.69459038      10.58850857      11.41959068
H       13.25164049      13.00130208      10.06843689
H       12.54054873      10.59920874      12.63739786
O       13.05101246      12.02107585      10.23675456
O       13.39632589      12.63122467      12.97906034
H       12.13719389      11.81981106      10.34083724
H       10.79962077      11.19145781      11.36422818
H       13.02395303      12.06180988      13.60304769
O       10.98126211      11.49010328      12.33497824
H       12.00000000      12.00000000      12.00000000
15
Lattice="24.0 0.0 0.0 0.0 24.0 0.0 0.0 0.0 24.0" Properties=species:S:1:pos:R:3 sample_kind=unbiased source_xyz=/home/kevinsh/mlip/outputsfull/temperature_ramp/r09_hot_w/temperature_ramp_seed_525385756_from_pressure_equil_seed_353168294_P_15GPa_T_300K_density_0.2_P_15GPa_300K_to_2340K.xyz source_frame=25096 source_time_ps=137.7425 seed_atoms=161 seed_distance_A=nan h2_present_current_frame=F environment_radius_A=4.565391376172873 cluster_build_rule=nearest_complete_covalent_fragments max_atoms_rule=reject_not_truncate_fragments charge=0 spin=1 cluster_id=187 pbc="F F F"
H       12.95612161      12.69082774      10.98223097
O        8.45058496      13.13962685      10.38155952
H        9.29582394      12.62967769      10.44177941
H       10.74059427      11.13895199      10.79463457
H       12.87139137      13.70700714      14.50351337
H       13.28870676      13.30430434      12.79394178
H       12.00000000      12.00000000      12.00000000
O       13.30182341      10.58760008      11.94362561
O       13.58537459      13.67460879      13.78409204
H        8.07188279      12.63134591       9.76078230
O       10.40932683      11.96085943      10.76100835
H       10.89698417      12.58533864      10.16341530
H       14.10142710      10.26873427      12.40886064
O       12.54591693      12.80100471      11.84371931
H       12.81854659      11.22376091      12.35731673
12
Lattice="24.0 0.0 0.0 0.0 24.0 0.0 0.0 0.0 24.0" Properties=species:S:1:pos:R:3 sample_kind=unbiased source_xyz=/home/kevinsh/mlip/outputsfull/temperature_ramp/r09_hot_w/temperature_ramp_seed_525385756_from_pressure_equil_seed_353168294_P_15GPa_T_300K_density_0.2_P_15GPa_300K_to_2340K.xyz source_frame=25097 source_time_ps=137.745 seed_atoms=108 seed_distance_A=nan h2_present_current_frame=F environment_radius_A=3.374267550711309 cluster_build_rule=nearest_complete_covalent_fragments max_atoms_rule=reject_not_truncate_fragments charge=0 spin=1 cluster_id=188 pbc="F F F"
H       11.83519319      11.51124227      11.05030877
H       11.55004888      11.36835558      13.55739485
O       11.88233784      11.11331253       9.48470423
O       12.00000000      12.00000000      12.00000000
H       12.09775026      13.57341570      13.44687721
H       11.78520102      11.94572105       9.87504474
H       12.90390261      12.76759269      13.99938696
H       10.76291621      11.16732979      14.48684401
O       12.78609979      13.59994846      14.20777233
H       12.56618766      12.85132847      11.82042952
O       10.68818350      11.82861367      13.94179382
H       12.36463384      11.41192315       8.69744201
12
Lattice="24.0 0.0 0.0 0.0 24.0 0.0 0.0 0.0 24.0" Properties=species:S:1:pos:R:3 sample_kind=unbiased source_xyz=/home/kevinsh/mlip/outputsfull/temperature_ramp/r09_hot_w/temperature_ramp_seed_525385756_from_pressure_equil_seed_353168294_P_15GPa_T_300K_density_0.2_P_15GPa_300K_to_2340K.xyz source_frame=25098 source_time_ps=137.7475 seed_atoms=255 seed_distance_A=nan h2_present_current_frame=F environment_radius_A=3.6463875370419196 cluster_build_rule=nearest_complete_covalent_fragments max_atoms_rule=reject_not_truncate_fragments charge=0 spin=1 cluster_id=189 pbc="F F F"
H       13.27518166      11.72078374      13.62895812
H       10.14317796      13.39753844      11.79658568
H       11.31046211      12.39949602      11.62485931
O        9.29007831      13.23656598      11.11727694
H       13.89328219       9.99229570       9.65365226
O       13.23801782       9.72848818      10.33393800
H       13.03138380      10.69652054      10.77408000
H       13.81330144      12.47544736      15.12762366
H        9.36912594      12.73671441      10.29544450
H       12.84239703      12.57379826      11.91228041
O       12.00000000      12.00000000      12.00000000
O       13.58437744      12.57719431      14.15228262
12
Lattice="24.0 0.0 0.0 0.0 24.0 0.0 0.0 0.0 24.0" Properties=species:S:1:pos:R:3 sample_kind=unbiased source_xyz=/home/kevinsh/mlip/outputsfull/temperature_ramp/r09_hot_w/temperature_ramp_seed_525385756_from_pressure_equil_seed_353168294_P_15GPa_T_300K_density_0.2_P_15GPa_300K_to_2340K.xyz source_frame=25099 source_time_ps=137.75 seed_atoms=202 seed_distance_A=nan h2_present_current_frame=F environment_radius_A=3.3782102954196174 cluster_build_rule=nearest_complete_covalent_fragments max_atoms_rule=reject_not_truncate_fragments charge=0 spin=1 cluster_id=190 pbc="F F F"
H       11.01654818      12.30438626      13.46811685
H       11.40014044      10.79939464      13.11551687
H       11.54437120      11.38205657      10.50652486
O       14.24002521      11.53652450      11.02890076
H       11.84257779       8.72032403      11.31567632
H       13.91932868      12.37899005      11.49287630
O       10.70898898      11.37627856      13.45389979
H       12.00000000      12.00000000      12.00000000
H       12.39115105      10.00668820      11.82030438
O       11.46894882       9.35099015      11.97639007
H       14.90392707      11.70328088      10.29956766
O       11.78619451      12.17308051      10.92675620
12
Lattice="24.0 0.0 0.0 0.0 24.0 0.0 0.0 0.0 24.0" Properties=species:S:1:pos:R:3 sample_kind=unbiased source_xyz=/home/kevinsh/mlip/outputsfull/temperature_ramp/r09_hot_w/temperature_ramp_seed_525385756_from_pressure_equil_seed_353168294_P_15GPa_T_300K_density_0.2_P_15GPa_300K_to_2340K.xyz source_frame=25100 source_time_ps=137.7525 seed_atoms=234 seed_distance_A=nan h2_present_current_frame=F environment_radius_A=3.1009678619542482 cluster_build_rule=nearest_complete_covalent_fragments max_atoms_rule=reject_not_truncate_fragments charge=0 spin=1 cluster_id=191 pbc="F F F"
H       10.61818728      12.06568268      14.77529837
H       11.04836660      10.53242182      11.66896357
H       11.41645321       9.08454503      11.43699486
H       12.70720999      12.31714577       9.19223255
H       11.60884636      12.59644985      12.54590995
O       13.16090966      12.95142854       9.89316454
O       10.75385976       9.71038889      11.76221140
O       11.09388202      11.86827479      14.02360642
H       12.31744723      11.39523587      12.74660612
H       10.27549232      11.53691397      13.59019974
H       12.51923735      13.14450716      10.55122893
O       12.00000000      12.00000000      12.00000000
10
Lattice="24.0 0.0 0.0 0.0 24.0 0.0 0.0 0.0 24.0" Properties=species:S:1:pos:R:3 sample_kind=unbiased source_xyz=/home/kevinsh/mlip/outputsfull/temperature_ramp/r09_hot_w/temperature_ramp_seed_525385756_from_pressure_equil_seed_353168294_P_15GPa_T_300K_density_0.2_P_15GPa_300K_to_2340K.xyz source_frame=25101 source_time_ps=137.755 seed_atoms=73 seed_distance_A=nan h2_present_current_frame=F environment_radius_A=3.3885580126777444 cluster_build_rule=nearest_complete_covalent_fragments max_atoms_rule=reject_not_truncate_fragments charge=0 spin=1 cluster_id=192 pbc="F F F"
O       10.79784046      10.17025910      12.20084297
H       10.95632338      13.66768006      11.99347381
H       12.00000000      12.00000000      12.00000000
H       10.99468622      10.60839532      11.16600739
H       10.75593174      15.14769362      12.16323129
O       11.32285091      14.42508215      12.34726523
H       13.41135564      12.38713107      11.79745633
O       12.65048150      12.52103456      12.41509850
H       11.82877258      14.25429361      13.20808494
H       11.61929807       9.95063795      12.85426478
12
Lattice="24.0 0.0 0.0 0.0 24.0 0.0 0.0 0.0 24.0" Properties=species:S:1:pos:R:3 sample_kind=unbiased source_xyz=/home/kevinsh/mlip/outputsfull/temperature_ramp/r09_hot_w/temperature_ramp_seed_525385756_from_pressure_equil_seed_353168294_P_15GPa_T_300K_density_0.2_P_15GPa_300K_to_2340K.xyz source_frame=25102 source_time_ps=137.7575 seed_atoms=135 seed_distance_A=nan h2_present_current_frame=F environment_radius_A=3.6073902920310807 cluster_build_rule=nearest_complete_covalent_fragments max_atoms_rule=reject_not_truncate_fragments charge=0 spin=1 cluster_id=193 pbc="F F F"
H       12.74229680      11.84749436      12.56877413
H       12.09863045      14.52605807      11.69769586
O       11.69457326      14.72567992      10.75953286
H       12.66128642      11.94818477       8.45411786
H       12.64089964      12.23330019      10.03430265
H       10.50959367       9.64862288      10.84449073
O       12.00000000      12.00000000      12.00000000
O        9.65266080      10.04152105      10.80639677
H       11.85093835      12.92228952      12.41739508
H       12.27939247      14.72423121       9.83289209
O       13.19368638      11.92135589       9.39487531
H        9.85198674      10.96542172      10.80981737
12
Lattice="24.0 0.0 0.0 0.0 24.0 0.0 0.0 0.0 24.0" Properties=species:S:1:pos:R:3 sample_kind=unbiased source_xyz=/home/kevinsh/mlip/outputsfull/temperature_ramp/r09_hot_w/temperature_ramp_seed_525385756_from_pressure_equil_seed_353168294_P_15GPa_T_300K_density_0.2_P_15GPa_300K_to_2340K.xyz source_frame=25103 source_time_ps=137.76 seed_atoms=71 seed_distance_A=nan h2_present_current_frame=F environment_radius_A=3.4785805685051208 cluster_build_rule=nearest_complete_covalent_fragments max_atoms_rule=reject_not_truncate_fragments charge=0 spin=1 cluster_id=194 pbc="F F F"
H       12.74919152       9.31280630      13.03440403
H       12.00000000      12.00000000      12.00000000
H        9.28262923      10.33292280      13.39185937
O        9.63489812      10.84626291      12.66097038
H       13.53320957      11.26180587      11.31808311
O       11.68570734      12.29026918      11.26441581
O       12.02762229       9.53804888      12.46313441
H       10.05310748      11.76088001      12.38107470
H       11.86363038      10.43700622      12.72142335
H       12.41139089      12.48930358      10.49457188
H       14.69568047      11.87185819      12.41226185
O       14.22532319      11.09214690      12.04062496
15
Lattice="24.0 0.0 0.0 0.0 24.0 0.0 0.0 0.0 24.0" Properties=species:S:1:pos:R:3 sample_kind=unbiased source_xyz=/home/kevinsh/mlip/outputsfull/temperature_ramp/r09_hot_w/temperature_ramp_seed_525385756_from_pressure_equil_seed_353168294_P_15GPa_T_300K_density_0.2_P_15GPa_300K_to_2340K.xyz source_frame=25104 source_time_ps=137.7625 seed_atoms=126 seed_distance_A=nan h2_present_current_frame=F environment_radius_A=5.070534412665783 cluster_build_rule=nearest_complete_covalent_fragments max_atoms_rule=reject_not_truncate_fragments charge=0 spin=1 cluster_id=195 pbc="F F F"
H       12.16300191      11.17486527      11.62931453
H       11.12685064      12.15298408      11.58435861
H       12.74348883       9.38400732      16.27950066
O       14.48234056      12.32305047      12.84035624
H       12.86403525      12.96174324      10.23602900
O       12.00000000      12.00000000      12.00000000
O       13.45024993      12.10668649       9.95133611
H       13.18316412      11.49201796      10.48146471
H       13.83956633      12.09499636      12.18822352
H       10.98881712      11.31992043      13.66960340
H       15.38090933      12.41361100      12.32100322
O       11.17800140      10.70157720      14.49866925
H       12.15700212      11.02408179      14.71838772
H       12.58997766      10.09030319      14.92135007
O       13.36725173       9.70418960      15.67792628
12
Lattice="24.0 0.0 0.0 0.0 24.0 0.0 0.0 0.0 24.0" Properties=species:S:1:pos:R:3 sample_kind=unbiased source_xyz=/home/kevinsh/mlip/outputsfull/temperature_ramp/r09_hot_w/temperature_ramp_seed_525385756_from_pressure_equil_seed_353168294_P_15GPa_T_300K_density_0.2_P_15GPa_300K_to_2340K.xyz source_frame=25105 source_time_ps=137.765 seed_atoms=287 seed_distance_A=nan h2_present_current_frame=F environment_radius_A=2.87180170542869 cluster_build_rule=nearest_complete_covalent_fragments max_atoms_rule=reject_not_truncate_fragments charge=0 spin=1 cluster_id=196 pbc="F F F"
O       13.52994380      12.00649545      13.83563956
O       11.56837896      12.90918248      12.13545563
H       11.17476121      10.05129196      11.78129797
H       12.69226271       9.42043423      10.94460538
O       10.70392234      10.62269745      10.92992707
H       12.60437343      11.76856790      14.13516957
H       14.21511507      11.95311911      13.13408887
H       11.49117539      11.17741533      10.77728828
H       13.47982274      10.21157831      12.29363716
O       13.18171300       9.47030041      11.70488744
H       10.94195819      12.53956714      12.67819338
H       12.00000000      12.00000000      12.00000000
12
Lattice="24.0 0.0 0.0 0.0 24.0 0.0 0.0 0.0 24.0" Properties=species:S:1:pos:R:3 sample_kind=unbiased source_xyz=/home/kevinsh/mlip/outputsfull/temperature_ramp/r09_hot_w/temperature_ramp_seed_525385756_from_pressure_equil_seed_353168294_P_15GPa_T_300K_density_0.2_P_15GPa_300K_to_2340K.xyz source_frame=25106 source_time_ps=137.7675 seed_atoms=275 seed_distance_A=nan h2_present_current_frame=F environment_radius_A=2.8643569548066274 cluster_build_rule=nearest_complete_covalent_fragments max_atoms_rule=reject_not_truncate_fragments charge=0 spin=1 cluster_id=197 pbc="F F F"
H       12.72788814       9.61672683      11.16710878
O       11.60968905      12.31137548      12.78703287
H       13.87375523      10.42195408      12.11743112
H       10.97174727      11.33741438      10.64289783
O       12.99008819      10.45212112      11.77955008
H       10.86138767      13.27427016      12.90257959
H       14.31120038      13.58117631      12.14146756
O       14.40506191      12.81683023      12.74165198
H       12.00000000      12.00000000      12.00000000
H       13.65507277      12.46025440      13.11693087
H       10.93324701      12.18523807       9.34815806
O       11.55277320      11.71569138       9.88324896
11
Lattice="24.0 0.0 0.0 0.0 24.0 0.0 0.0 0.0 24.0" Properties=species:S:1:pos:R:3 sample_kind=unbiased source_xyz=/home/kevinsh/mlip/outputsfull/temperature_ramp/r09_hot_w/temperature_ramp_seed_525385756_from_pressure_equil_seed_353168294_P_15GPa_T_300K_density_0.2_P_15GPa_300K_to_2340K.xyz source_frame=25107 source_time_ps=137.77 seed_atoms=134 seed_distance_A=nan h2_present_current_frame=F environment_radius_A=3.4013358813281207 cluster_build_rule=nearest_complete_covalent_fragments max_atoms_rule=reject_not_truncate_fragments charge=0 spin=1 cluster_id=198 pbc="F F F"
O       11.03394989      11.40918002      14.17559360
H       12.00757016      11.05304574      14.17631552
H       11.17680984      11.21169832      10.85251117
H       12.15709810      13.20807740       8.82431819
H       11.95770844      13.01291046      13.24780040
H       12.00000000      12.00000000      12.00000000
O       10.48826072      11.40793389      10.16900421
H       10.27105398      12.28382763      10.34788508
H       12.35040910      13.94503788      10.49914578
O       12.45229158      13.20986270       9.87056993
O       11.73065986      12.84842464      12.29470280
15
Lattice="24.0 0.0 0.0 0.0 24.0 0.0 0.0 0.0 24.0" Properties=species:S:1:pos:R:3 sample_kind=unbiased source_xyz=/home/kevinsh/mlip/outputsfull/temperature_ramp/r09_hot_w/temperature_ramp_seed_525385756_from_pressure_equil_seed_353168294_P_15GPa_T_300K_density_0.2_P_15GPa_300K_to_2340K.xyz source_frame=25108 source_time_ps=137.7725 seed_atoms=219 seed_distance_A=nan h2_present_current_frame=F environment_radius_A=3.9977567449290037 cluster_build_rule=nearest_complete_covalent_fragments max_atoms_rule=reject_not_truncate_fragments charge=0 spin=1 cluster_id=199 pbc="F F F"
H       12.26806541       9.74375001      10.53408004
O       12.99979998      13.76644167      10.86549501
H       11.12450843      12.26332862      11.64729053
H       11.75417571      11.40300207      12.76281823
H       13.60212494      10.51953369      10.12693790
H       12.77600013      10.67564804      13.21188125
O       13.35472425       9.68492222      10.86284649
H       12.96158496      13.15891448      11.56049419
O       12.46256469       9.68870414      13.21636634
H       13.30872058      10.23646274      11.87113541
H       11.79031520      10.15456712      13.94719685
O       12.00000000      12.00000000      12.00000000
O       11.50770849       9.94809956       9.63735919
H       10.61690110       9.53244975       9.17505890
H       12.03489718      10.04035990       8.73422895
16
Lattice="24.0 0.0 0.0 0.0 24.0 0.0 0.0 0.0 24.0" Properties=species:S:1:pos:R:3 sample_kind=unbiased source_xyz=/home/kevinsh/mlip/outputsfull/temperature_ramp/r09_hot_w/temperature_ramp_seed_525385756_from_pressure_equil_seed_353168294_P_15GPa_T_300K_density_0.2_P_15GPa_300K_to_2340K.xyz source_frame=25109 source_time_ps=137.775 seed_atoms=204 seed_distance_A=nan h2_present_current_frame=F environment_radius_A=4.507995837339746 cluster_build_rule=nearest_complete_covalent_fragments max_atoms_rule=reject_not_truncate_fragments charge=0 spin=1 cluster_id=200 pbc="F F F"
H       11.90752553      12.13417142       9.18775224
H       15.15801926      11.08585869      12.11725703
H       10.68063368      14.42623570      10.42893607
H       11.35626154      13.62396911      11.37491155
H       13.10811953      12.68405316       8.92974137
H       12.19662337      12.86715706      11.98515843
O       12.83687921      11.94823307       9.61588416
H       13.48065156      11.15700708      11.80867754
O       12.00000000      12.00000000      12.00000000
H       12.82016653      12.53713926      10.36702061
H       11.35663660      12.23721972      12.71844685
O       11.50614421      14.22418950      10.79105713
O       11.04041156      12.20299979       8.41190664
H       10.25090839      11.90682369       8.16387833
H       11.56705948      12.08995958       7.51374363
O       14.39028196      11.30975967      11.53218670
