! wB97M-V def2-TZVPP TightSCF PAL8

* XYZ 0 1
O   0.0000   0.0000   0.0626
H  -0.7920   0.0000  -0.4973
H   0.7920   0.0000  -0.4973
*