10
Lattice="24.0 0.0 0.0 0.0 24.0 0.0 0.0 0.0 24.0" Properties=species:S:1:pos:R:3 selected_molecules=41,49,75 source_xyz=mlip\outputsfull\r09_hot_w7n1\r09_hot_w7n1.xyz source_frame=966 source_time_ps=48.3 interaction_cutoff_A=2.0 center_molecule=75 pbc="F F F"
H       12.27924813      12.41523489      11.02903050
O       12.23531022      12.18356889      10.21602324
H       13.10902059      11.82065903       9.82792014
H       10.91271756      11.55010750      13.47367614
H       11.67196550      10.86638905      12.40529982
H        9.91663633      11.04005006      12.10412227
N       10.70841222      10.96135764      12.73624922
H       12.84127883      13.03249943      13.86471625
O       12.96794462      12.74907905      13.04394305
H       12.11873194      12.90485084      12.81027125
