13
Lattice="24.0 0.0 0.0 0.0 24.0 0.0 0.0 0.0 24.0" Properties=species:S:1:pos:R:3 selected_molecules=7,36,48,64 source_xyz=mlip\outputsfull\r09_hot_w7n1\r09_hot_w7n1.xyz source_frame=2206 source_time_ps=110.3 interaction_cutoff_A=2.0 center_molecule=36 pbc="F F F"
H       13.55131895      11.35116548       8.36159362
O       12.84592445      11.91889547       8.95372855
H       12.99852522      11.60037114       9.94412900
O       12.69010336      12.17308978      11.76859881
H       11.65193330      12.22487411      11.75714590
H       12.92023788      11.67092361      12.68085699
H       11.21403709      12.74581167      14.33304838
H       11.88150869      13.76260441      13.07848366
H       10.51866787      13.20009730      12.89719581
N       11.07594210      13.60144634      13.70901127
H       11.52955954       9.63068470      13.89770923
O       11.26884637      10.54346124      13.59164195
H       11.79978399      11.21826211      14.06242080
