12
Lattice="24.0 0.0 0.0 0.0 24.0 0.0 0.0 0.0 24.0" Properties=species:S:1:pos:R:3 selected_molecules=18,25 source_xyz=mlip\outputsfull\r09_hot_w7n1\r09_hot_w7n1.xyz source_frame=580 source_time_ps=28.999999999999996 interaction_cutoff_A=2.0 center_molecule=25 pbc="F F F"
O       10.96859459      11.19544408      13.29527368
H       10.03903811      11.01211232      13.53932641
H       12.04198175      11.45092778      12.21625018
H       10.85301726      11.93322362      11.52949135
O       11.73119348      11.95036182      11.30593131
H       11.02013348      10.15145295      13.18264690
O       11.43100865      13.92457146      10.18216948
H       11.82455423      13.19061059      10.61428300
H       12.21358834      14.09601689       9.75355201
O       13.88366609      11.02215204      13.08180692
H       14.60038957      11.21900625      13.70507165
H       13.17774338      11.47802082      13.59922271
