12
Lattice="24.0 0.0 0.0 0.0 24.0 0.0 0.0 0.0 24.0" Properties=species:S:1:pos:R:3 selected_molecules=28,30,31,41 source_xyz=mlip\outputsfull\r09_hot_w7n1\r09_hot_w7n1.xyz source_frame=4068 source_time_ps=203.4 interaction_cutoff_A=2.0 center_molecule=30 pbc="F F F"
H       14.22779962      12.04042686      11.81190541
H       13.67315048      11.30746318      13.16865947
O       13.40404867      11.69719857      12.17516267
O       10.89247655      12.14217802      11.81344060
H       11.74386170      12.15317328      12.01476778
H       10.71081920      12.75067569      10.90059163
H       10.93927331      13.79347766      13.71243029
O       11.45877710      13.08199497      14.19956825
H       10.94839385      12.52466640      13.42470990
H       11.41027134      11.71537829      10.00243019
H       11.84274529       9.98090429      10.14775099
O       12.27643183      11.06185895       9.86328722
