13
Lattice="24.0 0.0 0.0 0.0 24.0 0.0 0.0 0.0 24.0" Properties=species:S:1:pos:R:3 selected_molecules=25,40,64,89 source_xyz=mlip\outputsfull\r09_hot_w7n1\r09_hot_w7n1.xyz source_frame=3294 source_time_ps=164.7 interaction_cutoff_A=2.0 center_molecule=25 pbc="F F F"
H       12.15339244      12.17989121      12.25932567
H       11.62091168      13.20167429      11.34105101
O       11.45362638      13.01805131      12.26077620
H       11.16724829      12.22121007      14.18806324
H       12.53565983      11.77444581      13.41131850
O       12.13359560      11.97952174      14.24833454
H       12.84299104       9.81647373      12.38533143
H       12.40874037      10.49332392      10.75710159
H       11.33404569      10.19496352      11.97785937
N       12.32913914      10.59437277      11.83857802
H       12.62597382      12.03346462       9.22268525
O       12.11749582      12.42702948       9.81348392
H       11.42410049      13.00558931       9.58012695
