13
Lattice="24.0 0.0 0.0 0.0 24.0 0.0 0.0 0.0 24.0" Properties=species:S:1:pos:R:3 selected_molecules=30,33,48,69 source_xyz=mlip\outputsfull\r09_hot_w7n1\r09_hot_w7n1.xyz source_frame=1276 source_time_ps=63.8 interaction_cutoff_A=2.0 center_molecule=30 pbc="F F F"
O       12.04420147      11.99071836      12.35040360
H       11.41138880      11.36076471      11.94878876
H       12.76112138      11.39811409      12.48189483
H        9.19665350      11.40103247      12.79797486
O        9.26652828      11.07363950      11.82562458
H       10.01573154      10.41446167      12.01368426
H       14.75455612       9.91132982      12.22302938
O       14.71633357      10.85478529      12.08403079
H       13.87313351      11.19400068      11.86368618
H       11.29759711      14.51246561      12.40390111
H       12.61787167      14.95598896      11.99417586
H       12.54109972      13.53025302      11.90508059
N       11.93532572      14.32796389      11.58549605
