10
Lattice="24.0 0.0 0.0 0.0 24.0 0.0 0.0 0.0 24.0" Properties=species:S:1:pos:R:3 selected_molecules=29,52,56 source_xyz=mlip\outputsfull\r09_hot_w7n1\r09_hot_w7n1.xyz source_frame=1120 source_time_ps=55.99999999999999 interaction_cutoff_A=2.0 center_molecule=56 pbc="F F F"
H       10.09970245       9.57729415      11.58405414
O       10.02089398      10.65370066      11.68447106
H       10.96808650      10.92111677      11.99761985
H       14.08419218      12.99856408      11.27626801
H       12.59537622      13.74735197      11.33392994
H       13.54430105      14.26351997      10.48821673
N       13.62415755      13.85446293      11.34535269
H       11.86934236      12.48275575      13.00898985
O       12.40567760      11.60261167      12.99461921
H       13.24347011      11.91594157      12.62925454
