12
Lattice="24.0 0.0 0.0 0.0 24.0 0.0 0.0 0.0 24.0" Properties=species:S:1:pos:R:3 selected_molecules=7,61,70 source_xyz=mlip\outputsfull\r09_hot_w7n1\r09_hot_w7n1.xyz source_frame=656 source_time_ps=32.8 interaction_cutoff_A=2.0 center_molecule=61 pbc="F F F"
H        9.84874135      13.82822798      11.56725056
H       11.62804693      13.65402616      11.86088429
O       10.74703854      13.99045388      12.09099665
H       12.57756758      13.74242039      13.35745865
O       12.96699126      13.35953895      12.57383089
H       13.92512826      13.32055283      12.82072294
O       11.53299184      11.32329113      12.23892483
H       12.21160449      10.64410343      12.42499776
H       11.45097149      12.09663875      12.85629828
H       12.28470603       8.79043092      11.64158907
O       12.74470217       9.31978934      10.98641723
H       12.20459375      10.03354045      11.21402938
