13
Lattice="24.0 0.0 0.0 0.0 24.0 0.0 0.0 0.0 24.0" Properties=species:S:1:pos:R:3 selected_molecules=13,25,51,65 source_xyz=mlip\outputsfull\r09_hot_w7n1\r09_hot_w7n1.xyz source_frame=2362 source_time_ps=118.10000000000001 interaction_cutoff_A=2.0 center_molecule=65 pbc="F F F"
H       10.59396544      14.34177756      12.98556073
O       11.03040435      13.44469899      12.85643792
H       11.19461896      13.21982105      11.93749158
H       13.10511509      12.18431792      12.26195463
H       13.15185907      13.97452867      12.20553980
N       13.65523194      13.11809705      12.28989597
H       14.61585707      12.81021745      11.87965568
O       11.84942621      10.38960863      10.26464873
H       12.65119347      10.22497256       9.95583338
H       11.71983509      11.41756102      10.20287789
H       11.77398907      11.97447997      12.60730587
O       11.49603282      11.02185883      12.73722307
H       11.97107498      10.47038685      12.18434587
