11
Lattice="24.0 0.0 0.0 0.0 24.0 0.0 0.0 0.0 24.0" Properties=species:S:1:pos:R:3 selected_molecules=7,21,77 source_xyz=mlip\outputsfull\r09_hot_w7n1\r09_hot_w7n1.xyz source_frame=500 source_time_ps=25.0 interaction_cutoff_A=2.0 center_molecule=21 pbc="F F F"
H       13.74545511      11.04521179      10.81481172
H       12.42486575      11.17338763      11.59113425
H       13.49130730      12.55876737      10.81654255
H       12.10677644      11.32511486       9.97208582
N       12.92099635      11.56799293      10.71107216
O       12.01345813      13.45175613      12.16039311
H       12.55439375      13.82138360      12.81368991
H       12.08101317      12.43017363      12.29122886
H       10.56344889      10.26156654      13.30398802
O       11.06293139      11.06438595      12.99935094
H       10.89429551      11.19527351      13.89976002
