13
Lattice="24.0 0.0 0.0 0.0 24.0 0.0 0.0 0.0 24.0" Properties=species:S:1:pos:R:3 selected_molecules=4,66,76 source_xyz=mlip\outputsfull\r09_hot_w7n1\r09_hot_w7n1.xyz source_frame=635 source_time_ps=31.75 interaction_cutoff_A=2.0 center_molecule=76 pbc="F F F"
H       14.07310761      11.51671216       9.87425078
H       11.07555259      11.67091910      12.12428696
O       11.50075173      11.24803994      11.41259819
H       12.65121952      10.63239009      10.65601353
O       13.40325103      10.76602555       9.92234481
H       10.79802888      11.09326298      10.76702287
H       11.11786955      13.10136787      13.81492153
H        9.46742132      13.52964366      13.28124438
H       10.61543950      14.46443008      12.90942442
N       10.29933699      13.91706118      13.59938825
H       13.55791017      12.15752547      13.54838487
O       12.73819429      12.21420962      13.12192969
H       12.21058994      11.31544566      13.29217141
