11
Lattice="24.0 0.0 0.0 0.0 24.0 0.0 0.0 0.0 24.0" Properties=species:S:1:pos:R:3 selected_molecules=7,29,57 source_xyz=mlip\outputsfull\r09_hot_w7n1\r09_hot_w7n1.xyz source_frame=570 source_time_ps=28.5 interaction_cutoff_A=2.0 center_molecule=57 pbc="F F F"
H       13.95670272      11.02001716      12.67574545
H       14.21843111      11.78409812      10.94651343
H       13.78736869      12.71993291      12.18545812
H       15.29142741      12.01786174      12.14741839
N       14.20815604      11.75242606      12.00374813
O       10.02570861      13.47716544      12.71864176
H       10.65702143      12.73823091      12.83264743
H        9.17061178      13.13261657      13.16897176
O       11.72274660      10.77113046      11.21664756
H       12.68148881      11.08673660      10.91999161
H       11.28935216      10.99979366      12.09825997
