12
Lattice="24.0 0.0 0.0 0.0 24.0 0.0 0.0 0.0 24.0" Properties=species:S:1:pos:R:3 selected_molecules=6,19,62 source_xyz=mlip\outputsfull\r09_hot_w7n1\r09_hot_w7n1.xyz source_frame=3758 source_time_ps=187.9 interaction_cutoff_A=2.0 center_molecule=62 pbc="F F F"
O        8.59182418      12.57770648      12.95770985
H        9.03342443      12.65218975      13.77239084
H        7.82015987      13.37367286      12.80269727
O       13.62599019      12.94256967      11.38254774
O       14.37917698      10.72296350      11.11136212
H       13.86130150      11.91997926      11.63248963
H       14.74791472      11.11470237      10.31558640
H       14.97821716      10.20087963      11.45728685
H       13.94646391      13.53014705      12.02913061
H       12.08431538      12.45638900      12.27111814
H       10.71897858      12.27502140      12.90717389
O       11.32798510      11.66080653      12.47353958
