10
Lattice="24.0 0.0 0.0 0.0 24.0 0.0 0.0 0.0 24.0" Properties=species:S:1:pos:R:3 selected_molecules=7,56,77 source_xyz=mlip\outputsfull\r09_hot_w7n1\r09_hot_w7n1.xyz source_frame=3914 source_time_ps=195.7 interaction_cutoff_A=2.0 center_molecule=77 pbc="F F F"
H       10.26369691      13.21173586      10.88285007
H       11.71306152      12.75648500      11.67199156
H       10.27320600      12.72815509      12.09759222
N       10.92312516      13.35393540      11.56852800
O       12.97234544      12.01537111      13.26911579
H       12.29632282      11.49139365      13.27347163
H       13.17357961      11.63485434      14.10373233
H       11.42928221      10.41747948      10.67792249
H       11.55660827      11.50972070      11.63881069
O       12.17800037      10.81503105      11.08681186
