10
Lattice="24.0 0.0 0.0 0.0 24.0 0.0 0.0 0.0 24.0" Properties=species:S:1:pos:R:3 selected_molecules=5,62,80 source_xyz=mlip\outputsfull\r09_hot_w7n1\r09_hot_w7n1.xyz source_frame=595 source_time_ps=29.75 interaction_cutoff_A=2.0 center_molecule=80 pbc="F F F"
H        9.32945370      11.76844446      11.94440494
H       10.43555591      10.16651439      12.71203219
O        9.71708386      10.80660452      12.29670701
H       14.46013870      14.19670632      10.85446592
H       14.20308741      12.88619793      11.66508409
H       14.58198507      12.50825543      10.08210902
N       14.06216168      13.20579721      10.59418783
O       12.24853099      12.08160854      12.97511699
H       11.58824177      11.22053316      13.16921262
H       13.03589189      12.14410006      12.92120205
