19
Lattice="24.0 0.0 0.0 0.0 24.0 0.0 0.0 0.0 24.0" Properties=species:S:1:pos:R:3 selected_molecules=16,22,32,51,66,68 interaction_cutoff_A=2.2 source_xyz=C:\Users\shaoq\Documents\Mainz\mlip\outputsfull\r09_hot_w7n1\r09_hot_w7n1.xyz source_frame=1896 source_time_ps=94.8 center_molecule=51 pbc="F F F"
O       13.47299981      10.53797192      11.29510075
H       13.98156730      10.26537415      11.95378567
H       12.76954709       9.96339064      11.32264670
O        9.00765205      12.37166938      13.02296242
H        8.95019211      12.52585998      12.07993606
H        8.50063529      11.49891974      12.87304847
O       13.66736041      12.82582296      10.10964374
H       14.60901750      13.25676387      10.70737429
H       13.47316322      12.12671500      10.68490339
O       11.43036369      11.99695273      11.47786516
H       10.46268815      11.90844733      11.97902709
H       12.13470620      11.27990697      11.65778385
H       12.99904459      14.97121132      12.91636363
H       12.65863935      13.56389332      12.13366418
H       14.05006781      14.39884745      11.74017846
N       13.27891819      14.34059863      12.34798618
O       11.25639414      10.24950936      13.72948253
H       11.07960197       9.46163316      14.21271593
H       11.05405244      10.28538160      12.69543611
