12
Lattice="24.0 0.0 0.0 0.0 24.0 0.0 0.0 0.0 24.0" Properties=species:S:1:pos:R:3 selected_molecules=4,16,53,79 source_xyz=mlip\outputsfull\r09_hot_w7n1\r09_hot_w7n1.xyz source_frame=5000 source_time_ps=249.99999999999997 interaction_cutoff_A=2.0 center_molecule=16 pbc="F F F"
H       13.49585259      12.44434194      10.22986801
H       12.43756343      12.83892037       9.55779454
O       12.80873605      11.91061111       9.67989185
H       12.09918427      12.19794631      11.17025741
O       11.64020902      12.15155399      12.08148485
H       11.41966134      12.99974108      12.34012844
O       10.93166721      13.98344261      13.89393462
H       11.75276432      13.64520908      14.09674509
H       10.94073522      14.88457371      14.37091778
O       12.59375768       9.74161688      12.28657394
H       11.62205334       9.59568477      12.42151444
H       12.63898593      10.77075911      12.73517295
