13
Lattice="24.0 0.0 0.0 0.0 24.0 0.0 0.0 0.0 24.0" Properties=species:S:1:pos:R:3 source_xyz=mlip\outputsfull\r09_hot_w7n1\r09_hot_w7n1.xyz source_frame=505 source_time_ps=25.25 interaction_cutoff_A=2.0 center_molecule=66 pbc="F F F"
H       13.32534173      10.26260597      13.46317105
H       12.20332408       9.45695303      12.73295562
H       13.19245400      10.40799787      11.97507006
N       13.28672265       9.64076994      12.62404218
O       10.08874796      12.56563489      12.25649224
H       10.21201035      12.24844024      13.14036093
H        9.31484277      12.27814534      11.68749608
H       11.52162698      14.30413289      10.58309047
O       11.90973191      13.38258603      10.65809723
H       11.55965833      12.57895179      10.20365479
O       13.01010512      12.24402411      12.48890866
H       12.44033222      12.44663968      11.85759404
H       12.08608866      12.00423562      13.15271274
