12
Lattice="24.0 0.0 0.0 0.0 24.0 0.0 0.0 0.0 24.0" Properties=species:S:1:pos:R:3 selected_molecules=9,19,27,40 source_xyz=mlip\outputsfull\r09_hot_w7n1\r09_hot_w7n1.xyz source_frame=4224 source_time_ps=211.2 interaction_cutoff_A=2.0 center_molecule=9 pbc="F F F"
H       12.50391325      12.63885357      11.29187094
H       11.51370657      12.38737880      12.14058823
O       12.08173017      11.79154409      11.40326620
H       10.92779459      12.50428914      14.32770337
O       11.23322220      13.08743137      13.72279371
H       13.51611050      13.48127953       8.59543715
H       14.23928598      11.90700365       8.77571443
H       13.26813913      12.22029673       9.67828281
N       14.07058409      12.85132153       9.27325584
H       10.75002925      10.91027666      14.21995813
H       11.05509352      11.31945799      12.80392971
O       10.76049380      10.28945710      13.52369024
