12
Lattice="24.0 0.0 0.0 0.0 24.0 0.0 0.0 0.0 24.0" Properties=species:S:1:pos:R:3 selected_molecules=43,47,59,76 source_xyz=mlip\outputsfull\r09_hot_w7n1\r09_hot_w7n1.xyz source_frame=1586 source_time_ps=79.3 interaction_cutoff_A=2.0 center_molecule=43 pbc="F F F"
O       11.22120792      12.13824476      11.56192484
H       10.95851810      12.43163011      10.65643947
H       12.18422244      12.02260811      11.86695996
O       13.31356532      11.35391858      13.22335676
H       14.09246591      11.74240766      12.89095368
H       13.28174061      10.37567125      12.74320034
O       10.14182651      12.18247049      13.96603322
H        9.83148074      11.41873345      13.74627551
H       10.68384781      12.66471447      13.32684812
H       13.52943964      12.35955876       8.43149930
O       13.25640378      12.39214609       9.40789635
H       12.50165425      11.92474366       9.81082018
