19
Lattice="24.0 0.0 0.0 0.0 24.0 0.0 0.0 0.0 24.0" Properties=species:S:1:pos:R:3 selected_molecules=4,9,16,51,75 interaction_cutoff_A=2.2 source_xyz=C:\Users\shaoq\Documents\Mainz\mlip\outputsfull\r09_hot_w7n1\r09_hot_w7n1.xyz source_frame=1742 source_time_ps=87.10000000000001 center_molecule=75 pbc="F F F"
H       12.02956646      12.74586169      12.25238114
H       10.62110059      13.27255727      11.86852110
H       11.49545869      13.51890439      13.38642902
N       11.51939291      13.65279130      12.32924445
H       11.74061221      11.59305800      12.73067212
O       11.37842637      12.01940204      14.89655407
O       11.11083317      10.94170317      12.90118041
H       11.87569442      10.22883221      12.79817750
H       11.48141249      11.37736949      14.18710500
H       11.81434040      11.37402292      15.42551950
H       11.71782227      11.64106762       8.88648235
H       10.29401838      10.76276630       8.69231911
O       10.73971845      11.57383070       8.85030223
O       14.46037887      12.38193099      12.38116959
H       15.23816982      11.99009696      12.84703741
H       14.43036911      11.70987120      11.58093315
O       12.67117471      11.80117901      10.68380739
H       11.81872502      12.20352244      10.44756632
H       12.39878057      10.96236301      10.87678384
