11
Lattice="24.0 0.0 0.0 0.0 24.0 0.0 0.0 0.0 24.0" Properties=species:S:1:pos:R:3 selected_molecules=44,50,76,77 source_xyz=mlip\outputsfull\r09_hot_w7n1\r09_hot_w7n1.xyz source_frame=565 source_time_ps=28.25 interaction_cutoff_A=2.0 center_molecule=77 pbc="F F F"
H       11.85953030      12.07580678      13.46598140
O       11.08762637      11.49523098      13.28962700
H       11.66415941      10.77651071      12.96960033
H       11.89815211      13.36572510      11.90043116
O       11.95460534      14.09878055      11.30639556
H       11.16562816      14.45210450      11.20695212
H       13.77960817      10.48799861      13.18179729
O       13.47682498      10.90524360      12.28432060
H       12.19768970      11.97143856      11.40280338
O       11.47340241      11.52025291      11.02368286
H       11.55492156      10.56078363      11.39573558
