12
Lattice="24.0 0.0 0.0 0.0 24.0 0.0 0.0 0.0 24.0" Properties=species:S:1:pos:R:3 selected_molecules=22,56 source_xyz=mlip\outputsfull\r09_hot_w7n1\r09_hot_w7n1.xyz source_frame=625 source_time_ps=31.249999999999996 interaction_cutoff_A=2.0 center_molecule=56 pbc="F F F"
H       12.73363634      15.10292908      13.43015921
O       12.26667293      10.96632113      10.53561478
H       12.43352867      13.36121509      12.19754451
H       13.42439078      15.46737446      12.14488716
O       11.70003695      12.51009543      12.47412820
H       12.72221602      11.78791846      10.17094732
H       14.05955879      14.10653370      13.11153047
H       11.71013671      11.77468347      11.71683879
N       13.23112264      14.60784347      12.73656495
O       10.75011372       9.88201565      12.19075858
H       10.96113969       9.54453123      13.14528763
H       11.21452432      10.54368310      12.53727948
