19
Lattice="24.0 0.0 0.0 0.0 24.0 0.0 0.0 0.0 24.0" Properties=species:S:1:pos:R:3 selected_molecules=22,37,50,54 interaction_cutoff_A=2.2 source_xyz=C:\Users\shaoq\Documents\Mainz\mlip\outputsfull\r09_hot_w7n1\r09_hot_w7n1.xyz source_frame=4844 source_time_ps=242.2 center_molecule=50 pbc="F F F"
O       11.16574698      12.01787354      13.68888552
H       10.31770035      12.33012319      13.25657835
H       11.46912050      12.54413341      14.50008008
H       12.42155029      14.07836482      10.79276493
H       12.18080597      15.55523912      10.42668590
H       11.90813398      14.69873066      12.09766196
N       12.44334227      14.95326440      11.22288145
H       13.28062119      15.41364487      11.67458886
O       11.36455358      12.56872453      10.96015662
H       11.32862310      11.99448588      11.65872088
H       11.94817151      12.34222624      10.28435523
O       11.39083028       9.72391879      11.73521306
H       13.77483247      10.97669158      13.31432295
H       10.79969171       9.64703387      12.53407657
H       12.58289783      10.55090668      12.30207792
H       11.13286385       8.92283953      11.30160629
H       13.95615633      11.54009245      11.69293107
H       13.81898909       9.70915546      11.90753151
N       13.72102614      10.81070673      12.35664068
