13
Lattice="24.0 0.0 0.0 0.0 24.0 0.0 0.0 0.0 24.0" Properties=species:S:1:pos:R:3 selected_molecules=7,28,55,58 source_xyz=mlip\outputsfull\r09_hot_w7n1\r09_hot_w7n1.xyz source_frame=550 source_time_ps=27.5 interaction_cutoff_A=2.0 center_molecule=58 pbc="F F F"
H       12.78292725       9.54537329      10.34176612
H       13.33086531       9.72258012      11.75860404
H       12.29820138       8.18434129      10.90398946
N       12.52937951       9.17693411      11.18514116
O        9.53022484      13.13662839      12.09615262
H        9.23169164      13.10933085      13.05275610
H        8.73133831      13.36051648      11.59565106
H       14.61967730      13.06853846      12.70922572
O       14.00431906      13.68868293      12.60286181
H       13.34558739      13.08869313      12.08118878
O       12.03360257      11.93689154      12.07841751
H       11.98488841      10.97055656      12.23640075
H       11.17304305      12.33717325      12.30414231
