19
Lattice="24.0 0.0 0.0 0.0 24.0 0.0 0.0 0.0 24.0" Properties=species:S:1:pos:R:3 selected_molecules=8,32,44,62,80 interaction_cutoff_A=2.2 source_xyz=C:\Users\shaoq\Documents\Mainz\mlip\outputsfull\r09_hot_w7n1\r09_hot_w7n1.xyz source_frame=810 source_time_ps=40.5 center_molecule=8 pbc="F F F"
H       11.58385993      11.26107909      13.14914573
O       12.17868403      12.19465958      13.28605448
H       11.62612878      12.89962174      13.14462705
O       10.28210818      14.23641698      12.87169426
H       10.07441747      13.47407739      13.29117080
H        9.41605454      14.63910319      12.94551070
H       10.77277043      10.45008430      10.92370914
H       11.93270405      10.99938931      11.43232244
H       12.24125513       9.08022667      10.66839295
O       11.46453298      10.07628772      11.55701988
O       12.00589208       8.11299251      10.60450245
H       12.32597202       7.69759626       9.82395128
H       13.69539861      11.34803442      11.05242800
O       13.58018603      12.32383067      11.18814942
H       13.43444128      12.75854752      12.09857203
H       11.95895891      15.80667463      12.16842310
H       13.15507822      14.65845884      11.80616984
H       12.12460915      14.98751981      13.43102457
N       12.67742391      15.19819009      12.56727694
