12
Lattice="24.0 0.0 0.0 0.0 24.0 0.0 0.0 0.0 24.0" Properties=species:S:1:pos:R:3 source_xyz=mlip\outputsfull\r09_hot_w7n1\r09_hot_w7n1.xyz source_frame=520 source_time_ps=26.0 interaction_cutoff_A=2.0 center_molecule=53 pbc="F F F"
H       13.30106285      15.32898709      13.71225739
O       12.95761490      14.99393023      12.91237863
H       12.19605485      15.52017513      12.58111321
O       12.70893387      12.90021401      11.08350815
H       10.41339551      10.89933247      12.20680046
H       12.61643449      13.94530225      11.37759574
O       11.21796842      11.53305087      12.49396472
H       11.36000027      11.36683427      13.42141291
H       11.74093246      12.23267934      11.55028105
H       11.95434129       8.15896663      11.69633519
H       11.16130587       9.42199592      11.41363773
O       11.19464552       8.51772225      11.38669646
