13
Lattice="24.0 0.0 0.0 0.0 24.0 0.0 0.0 0.0 24.0" Properties=species:S:1:pos:R:3 selected_molecules=14,61,63,65 source_xyz=mlip\outputsfull\r09_hot_w7n1\r09_hot_w7n1.xyz source_frame=3138 source_time_ps=156.9 interaction_cutoff_A=2.0 center_molecule=65 pbc="F F F"
O        9.60226391      11.27027815      12.05244063
H        9.12662700      10.44904376      11.79203687
H        8.75976848      11.28412256      12.77551941
H       13.33723977      13.16190194      13.10228712
H       12.73459069      13.67474679      14.56435288
O       13.61515051      13.43563276      14.12122622
H       13.94228979      10.42969496       9.93942559
H       12.58132543      10.70187103       8.91252231
H       13.21665286      11.61202104      10.40397359
N       12.93393063      10.67982151       9.95429366
H       11.32382304      12.14720692      12.39627236
H       12.20233861      11.77768806      11.39350297
O       12.01378634      12.62389325      11.78871056
