11
Lattice="24.0 0.0 0.0 0.0 24.0 0.0 0.0 0.0 24.0" Properties=species:S:1:pos:R:3 source_xyz=mlip\outputsfull\r09_hot_w7n1\r09_hot_w7n1.xyz source_frame=540 source_time_ps=27.0 interaction_cutoff_A=2.0 center_molecule=69 pbc="F F F"
O       13.61913571       9.70779869      11.03386798
H       13.47501615       8.74262721      10.86543578
H       12.68594343      10.13955476      11.22125066
O       11.74446969      12.06786936      11.99461412
H       11.86254749      12.13879139      12.92274404
H       12.66176891      11.91116494      11.63030699
H       13.60234701      13.42037835      14.21240484
O       12.91322133      12.84421118      13.94028640
O        9.73669352      13.47789031      11.12321560
H       10.60253309      12.83035221      11.18220675
H        8.89525021      13.26533057      10.50567703
