12
Lattice="24.0 0.0 0.0 0.0 24.0 0.0 0.0 0.0 24.0" Properties=species:S:1:pos:R:3 selected_molecules=15,18,70 source_xyz=mlip\outputsfull\r09_hot_w7n1\r09_hot_w7n1.xyz source_frame=3604 source_time_ps=180.2 interaction_cutoff_A=2.0 center_molecule=70 pbc="F F F"
H       11.15537820      12.30929662       9.64482100
H       11.71764741      10.21787883      10.47718485
O       12.64721488      10.28953428      11.00837202
O       11.08879020      11.23158717       9.46536224
H       10.90041054      11.08165384       8.57911596
H       12.56287309       9.60767345      11.73248836
H       10.87404777      14.82528433      14.75815045
O       11.53045741      14.05722794      14.71138392
H       11.34840277      13.86954220      13.88450978
O       12.89980700      12.39850134      12.91636913
H       12.79159420      11.80198944      11.93107811
H       12.01061262      12.65410705      13.38184240
