19
Lattice="24.0 0.0 0.0 0.0 24.0 0.0 0.0 0.0 24.0" Properties=species:S:1:pos:R:3 selected_molecules=16,22,48,57,71,80 interaction_cutoff_A=2.2 source_xyz=C:\Users\shaoq\Documents\Mainz\mlip\outputsfull\r09_hot_w7n1\r09_hot_w7n1.xyz source_frame=1432 source_time_ps=71.6 center_molecule=71 pbc="F F F"
H       13.40530647      12.02250406      13.43806465
O       13.72288432      11.13187534      13.76380198
H       13.24582949      11.21052059      14.60971077
O        9.99817450      13.59040223      12.77816339
H        9.84913266      14.35291490      12.00698453
H       10.82825895      13.34878411      12.77515454
H        9.72611525      12.83486058       9.60957980
H       10.15568297      13.19413406      10.96044216
H       10.66620410      14.20014797      10.05858205
N       10.51986348      13.16474395      10.11440462
O       15.01848140      11.84906454      11.19936192
H       14.09909286      11.39157552      11.31592811
H       15.66621863      11.18459491      10.70618265
H       11.80488411      11.63185884      12.10778543
H       12.04966547      12.32115833      10.83197367
O       12.52183279      11.95099479      11.68465714
H        9.92501752      10.19396889      11.61689255
O       10.33231610      10.26612983      12.44609191
H        9.85125029      11.15737445      12.45099805
