12
Lattice="24.0 0.0 0.0 0.0 24.0 0.0 0.0 0.0 24.0" Properties=species:S:1:pos:R:3 source_xyz=mlip\outputsfull\r09_hot_w7n1\r09_hot_w7n1.xyz source_frame=525 source_time_ps=26.25 interaction_cutoff_A=2.0 center_molecule=61 pbc="F F F"
O       14.01803887      10.84249760      13.07431110
H       13.39854131      10.62885906      12.19443251
H       13.45921658      11.46351605      13.50734476
O       11.73446623      13.00019120      12.08597717
O       11.19483855      13.59301540       9.85983357
H       11.36555596      13.40388510      11.15529591
H       11.98561843      13.99179887      10.02961049
H       10.54391394      14.46523478       9.95629905
H       12.33076562      12.70917390      12.81745851
H       11.12131552      11.36744372      12.53799570
O       11.05667409      10.45289771      13.05829054
H       11.73130304       9.73820171      12.55699987
