10
Lattice="24.0 0.0 0.0 0.0 24.0 0.0 0.0 0.0 24.0" Properties=species:S:1:pos:R:3 source_xyz=mlip\outputsfull\r09_hot_w7n1\r09_hot_w7n1.xyz source_frame=545 source_time_ps=27.25 interaction_cutoff_A=2.0 center_molecule=23 pbc="F F F"
H       12.29660877      12.08508701      11.65837242
O       12.73908884      11.57244429      12.41055218
H       12.65273167      10.70628294      12.14849018
H       12.65092895      13.66029347      11.16965743
H       11.53035332      14.97817029      11.55834515
H       12.97754447      14.98457575      12.11024504
N       12.45964126      14.62042369      11.40676106
H       10.68633777       9.38903322      12.81440356
O       10.91392790       9.97683470      12.12830240
H       10.32572329      10.68148870      12.23132285
