11
Lattice="24.0 0.0 0.0 0.0 24.0 0.0 0.0 0.0 24.0" Properties=species:S:1:pos:R:3 selected_molecules=12,31 source_xyz=mlip\outputsfull\r09_hot_w7n1\r09_hot_w7n1.xyz source_frame=4534 source_time_ps=226.7 interaction_cutoff_A=2.0 center_molecule=12 pbc="F F F"
O       11.82800423      10.25865309      11.51317214
H       11.46713741      11.19239728      11.59208691
H       11.29622011       9.56056523      11.44954321
H       12.30012732      12.81593583      10.14023562
O       10.76100871      12.63894640      14.16015434
O       13.19916730      12.44744517      10.09319379
H       11.63941174      12.72889812      13.47144701
O       12.30756910      12.64929830      12.28999188
H       13.14559490      12.32284308      11.10377064
H       10.56532414      11.86692360      13.50657781
H       12.06644863      13.60222559      11.83937665
