12
Lattice="24.0 0.0 0.0 0.0 24.0 0.0 0.0 0.0 24.0" Properties=species:S:1:pos:R:3 selected_molecules=23,47,68,78 source_xyz=mlip\outputsfull\r09_hot_w7n1\r09_hot_w7n1.xyz source_frame=575 source_time_ps=28.75 interaction_cutoff_A=2.0 center_molecule=68 pbc="F F F"
H       13.09178670      13.05177464      10.14426579
H       12.23865701      12.27617423      11.18563242
O       13.18735996      12.23190817      10.76527453
H       14.30855502      10.70837144      11.95621243
H       13.85259137      10.15201892      13.36851400
O       13.42291179      10.51301175      12.49853382
O       10.74821570      11.36957256      12.46714922
H       10.34491028      11.22966199      11.48784037
H       11.63216942      11.02982657      12.38155692
H       10.41640326      14.58903717      12.79505940
H       10.51090372      13.25785633      13.03394311
O       10.61656446      13.86693892      12.24680051
