27
Properties=species:S:1:pos:R:3:REF_forces:R:3 REF_energy=-18720.17587323473 charge=0 spin=1 external_field="0.0 0.0 0.0" config_type=ORCA_DFT source_file=C_DFTprod_cutcluster_0000.out orca_step=0 pbc="F F F"
O       12.08695700      11.46589100      11.19157900       0.24115890      -0.13444032      -0.30265471
H       12.00000000      12.00000000      12.00000000       0.14624204       0.10859153      -0.42444360
H       12.43644200      12.05236300      10.50056400      -0.27677136      -0.27400166       0.34331275
O       12.92933800       8.31799500      11.84530900      -0.43372693       1.53266500       1.09718154
H       12.68068500       8.79688700      12.68365100      -0.09157540       0.25495642      -1.22584762
H       13.15930700       7.50748000      12.24979100       0.60705951      -1.85853337       0.12742851
O        9.73841300      13.71730800      11.11656000      -0.16217965       1.00260324      -0.21612109
H       10.21952400      13.22447200      11.77811400       0.01082357      -0.42702844       0.12466571
H        9.34186700      13.12002300      10.48833500       0.01441720      -0.44092731      -0.06037624
O       14.52670300      11.95597300      13.57958100      -0.68044451       0.81355793       0.05080120
H       14.27163800      12.82857000      13.17881300       0.63788174      -1.22813441       0.09098369
H       15.25201500      11.59336900      13.06703900       0.14931842       0.27489481      -0.37453679
O       11.48754400      13.11965500      13.19772700       0.44639044       0.58996579       0.91109593
H       11.96896800      13.93339600      13.46502300      -0.52897304      -0.92405563      -0.06696326
H       11.51305400      12.50097400      13.94830500       0.06545659       0.32448605      -0.10447848
O       11.14260500       9.01178000       9.71294600       0.66656436      -0.66752898       1.00300686
H       11.06542100       9.76424500      10.33638100       0.31884803      -0.57057874      -0.44969415
H       11.73189400       8.36319900      10.20148500      -1.02739639       1.38467923      -0.66932284
O       14.80871900      10.78307500      10.44406400       1.34427799      -1.55471555      -1.17463592
H       14.09233000      10.78529000      11.05977000      -1.17435249      -0.17433932       0.63036245
H       14.87411000       9.83124200      10.13725700      -0.25738318       1.74926498       0.59546491
O       12.50894300       9.90964700      14.27327700      -0.48893264      -1.07278763       0.49019289
H       13.37709800      10.25890200      14.07664400       0.62007084       0.64967359      -0.03795653
H       12.64575600       9.20197900      14.93553900      -0.11774044       0.69170769      -0.41042867
O       14.11973100      14.42566000      11.61719600      -1.04001151      -0.14964043      -1.39455587
H       13.25960000      14.89599000      11.69904000       0.85757080      -0.34065896      -0.20478658
H       14.11481500      14.12168200      10.66193500       0.15340714       0.44032438       1.65230594
27
Properties=species:S:1:pos:R:3:REF_forces:R:3 REF_energy=-18719.83166434844 charge=0 spin=1 external_field="0.0 0.0 0.0" config_type=ORCA_DFT source_file=C_DFTprod_cutcluster_0001.out orca_step=0 pbc="F F F"
O       11.05248300      14.58399100      10.96516300      -0.12150078       1.53133095       0.60945809
H       11.10608800      15.39059200      11.55756200       0.09640115      -1.27966508      -0.73280230
H       10.34986700      14.03626600      11.33680600      -0.09227289       0.02632928       0.25063758
O       12.00000000      12.00000000      12.00000000      -1.53282759      -1.11891312      -0.64908923
H       11.19025200      11.49263500      12.28936800       1.18859043       0.54992425      -0.55402618
H       11.86928700      12.07257300      11.00554500       0.29009204       0.10534777       1.48359971
O       13.91581000       9.96186900      10.90379400       0.15124577      -0.80788197      -0.06958218
H       13.34795400      10.53989800      11.42801800      -0.02043009       0.49160643      -0.29603391
H       13.89424800      10.20840600       9.97387500      -0.06173291       0.41212992       0.37655547
O        8.65739100      13.10667500      11.86477900      -1.06266905       1.40185060      -2.68098465
H        8.35302200      13.06301900      10.89113300       0.66356897       0.10453690       2.41085178
H        8.88464800      12.21989400      12.08081000       0.37526899      -1.36407590       0.01667818
O       12.23504700      16.16626700      13.28768800      -0.61676939       0.86847382      -0.45502096
H       11.46681600      16.58352700      13.73423400       0.98058236      -1.03759576      -0.03652376
H       12.48287000      15.28595000      13.62342100      -0.49627195       0.11396678       0.49023968
O       11.32613200      11.39851900       9.28473200       0.89982077      -1.90856329      -0.32667966
H       10.41129200      11.30577500       9.02489500      -0.42561983       0.18269083      -0.14174508
H       11.68880700      10.47395300       9.12685500      -0.49949205       1.70562291       0.39534473
O       13.68825400      13.88516400      10.91302100       1.46075581      -0.67305819       0.24523055
H       14.05491500      14.15284100      10.06506000      -0.61818581       0.22306862       0.15510032
H       12.76787900      14.12259500      11.03199300      -0.55650699       0.43321029      -0.59344326
O        9.52985600      10.41130700      12.33848200      -0.61105485      -1.01207591      -0.30342038
H        9.01032900      10.48586900      13.16797500       0.31346008      -0.75757422      -0.82091803
H        9.30859800       9.56975800      11.83296400       0.19982404       1.60781084       1.40922175
O       12.79730500      13.47269800      14.30751900      -2.03561369      -1.45176585       0.50821920
H       12.47068300      12.91306800      13.53519600       0.78695709       0.90805719       0.70589663
H       12.18565300      13.17239800      15.05294800       1.34438042       0.74521199      -1.39676408
27
Properties=species:S:1:pos:R:3:REF_forces:R:3 REF_energy=-18719.2991863209 charge=0 spin=1 external_field="0.0 0.0 0.0" config_type=ORCA_DFT source_file=C_DFTprod_cutcluster_0002.out orca_step=0 pbc="F F F"
O       10.73777700      11.25083400      15.40964400      -0.05566444      -0.20202846       1.38811746
H       11.36713100      11.71789700      15.98307600      -0.21798030      -0.33386893      -0.26292339
H       10.94169200      11.56266500      14.54608100       0.24830533       0.44770906      -1.29848530
O       11.00257400      12.09166300      12.01871000       1.79179488      -0.82907912      -0.08507848
H       12.00000000      12.00000000      12.00000000      -1.45714182       0.33889184      -0.15975299
H       10.71944600      11.18002700      11.87124800      -0.38453108      -0.21195559       0.14503471
O       13.45039200      12.32232300       8.68431300      -0.09294492      -0.26229949      -2.92723069
H       13.52847600      12.89322500       9.42264600      -0.09288399       1.04414199       0.98536538
H       13.36351100      12.86972100       7.84284400       0.12191807      -0.93033297       2.00870633
O       10.07567600      13.90725100       9.52307800      -0.01441222       0.25808391       0.48114271
H        9.59699800      14.62536400      10.01124800       1.02744848      -1.33932846      -0.13594580
H       10.63929400      13.36708100      10.13280100      -0.92948353       1.05908339      -0.30384626
O        9.94368800       9.39817500      12.70721400      -1.98539218       1.39464447      -0.34507457
H       10.57699700       8.90431200      13.19043400       0.61956160      -0.61194342       1.09418661
H        9.24017600       9.73614100      13.32894300       1.40450763      -0.71270445      -0.73107545
O       13.00573800      13.80927500      11.27704700       1.72704139       2.88551520      -0.57863987
H       13.44160700      14.63898300      10.83197900      -1.36243780      -2.25675285       1.16183425
H       13.10024600      14.03877500      12.22399300      -0.10900352      -0.26935043      -0.61096800
O        9.76904500      14.33975400      12.69587800       0.75212867      -0.58682446       0.10934846
H       10.62399700      14.49480200      13.15372800      -0.96362388      -0.10460817      -0.44107000
H        9.89463200      13.41775000      12.34192100      -0.01475608       1.22245567       0.49588845
O       13.75855000      11.09112000      12.23826500       0.28063732      -3.36870646      -0.07499168
H       13.65374600      10.05010500      12.21916700       0.16915001       3.14580805       0.01016609
H       14.66163700      11.20919800      11.90192900      -0.33340808       0.16495808      -0.21099924
O       14.01880700      11.26230700      15.04920200       0.83864517      -0.61763060      -2.30063454
H       14.15497000      11.34398600      14.04074800      -0.70391940       0.25147247       2.01100356
H       14.35654600      10.35252600      15.13517300      -0.26355532       0.42464986       0.57592232
27
Properties=species:S:1:pos:R:3:REF_forces:R:3 REF_energy=-18719.753603902347 charge=0 spin=1 external_field="0.0 0.0 0.0" config_type=ORCA_DFT source_file=C_DFTprod_cutcluster_0003.out orca_step=0 pbc="F F F"
O       12.55769600      14.81762300      12.07823900      -0.15360805       0.10437862      -0.24750552
H       11.84160100      15.01701200      11.45442100      -0.33066245      -0.12849979       0.39769894
H       13.21638700      14.45241500      11.48451600       0.35213060      -0.26664286       0.05684591
O       10.62906600      13.63226100      14.46571200       3.06423758       0.67151558       2.29652546
H       11.05421800      13.67827200      15.40961900      -1.59468613      -0.18507275      -2.41054042
H       11.46979800      13.72499100      13.93570800      -1.39582512      -0.12842677       0.07074021
O        8.57462600      12.04039200      10.45371000      -2.90681386      -0.90238369       0.07287376
H        8.01164800      11.23218700      10.28162100       0.72021413       1.58681598       0.26570960
H        9.43176000      11.72679300      10.29827200       2.21990246      -0.66020843      -0.30501889
O        9.23895000       9.46202100      12.38021900       1.62006796      -1.35905464       0.34819687
H        8.63661900       9.44238600      11.66777500      -1.06551367       0.22838509      -0.88986622
H        9.26280800      10.31039400      12.80133000      -0.52522062       1.05739346       0.78132684
O        9.80227600      14.65115500      10.98588400       1.77313649      -1.36599446      -1.67715777
H        9.28196000      13.84745400      10.93821900      -0.33304232      -0.10144052       0.09792057
H        9.35426800      15.26154100      11.50249600      -1.45774803       1.61520060       1.56611017
O       13.59274600      12.21993000      10.62302600       0.69123070       0.15645385       0.20487693
H       13.64356100      12.16819800       9.66863900      -0.17460034      -0.01715785      -0.35424060
H       14.52470900      12.15071900      10.89140700      -0.42741277      -0.09341708       0.14145403
O       11.45658100      11.43357800      12.49347000      -1.90874512      -2.21449502       1.34183709
H       12.00000000      12.00000000      12.00000000       1.05229182       0.82859462      -1.82164529
H       11.02591100      10.68507800      11.99989000       1.03533061       1.20966011       0.32743027
O        8.65133000      11.82189100      14.01648800      -0.05776369      -0.05292606      -0.34292250
H        9.35121600      12.48957600      14.14576600       0.19147773      -0.19271649       0.17518907
H        8.35488500      12.01722200      13.12338500      -0.29690238       0.15429567      -0.09563096
O       14.16459800      10.26668100      13.65637600       1.53510878      -1.13638243      -0.01223578
H       13.43094200      10.42587000      13.09373000      -1.37328503       0.47573228      -0.55615028
H       14.18982100      10.93624600      14.31930800      -0.25329924       0.71639301       0.56817851
27
Properties=species:S:1:pos:R:3:REF_forces:R:3 REF_energy=-18719.18880444015 charge=0 spin=1 external_field="0.0 0.0 0.0" config_type=ORCA_DFT source_file=C_DFTprod_cutcluster_0004.out orca_step=0 pbc="F F F"
O       12.49084500      15.54421000      14.30365600       0.89914153      -2.04302716       1.57044813
H       12.61843500      16.22769300      13.65082700       0.76459384       0.43788981       0.24809646
H       13.31286200      15.12176300      14.73165500      -1.65533491       1.82005223      -1.39311991
O        9.85842300      12.48031400      12.32054500       0.58346568      -2.65684826      -0.67070723
H        9.50996100      13.29843000      12.57066300      -1.05373930       2.03854815       0.67935282
H        9.11688300      11.84734100      12.25701300       0.42266054       0.66375147      -0.14295545
O       13.86340600      14.77251900      11.78722800       0.21724466      -0.61245708       0.03358684
H       13.39872300      14.90801500      12.62489800       0.22945904      -0.49300336       0.07183745
H       13.71137700      13.82248000      11.58014600      -0.01496768       0.62635142       0.09066394
O       14.94805600      11.60723200      13.93232400      -0.29900436       1.24137683       0.78129413
H       15.43684600      11.56182400      13.10341300       0.24737105       0.52265302       0.17664293
H       14.99318200      12.51619200      14.34679100       0.29614159      -1.58854546      -1.10538675
O       11.19000100      15.51355800      11.61641500       0.14334976       2.15651484       0.20114523
H       12.14368300      15.74277200      11.71774200      -1.21260166      -1.04363389      -0.77707393
H       11.05729000      14.58272500      11.58969600       0.56086007      -1.05073656      -0.09525264
O       13.18498100       9.51311500      14.74258000       1.19597043       0.56918731      -1.45663572
H       12.99478600       9.37507300      13.77876300      -0.27544775      -0.32908760       1.07958635
H       14.03495800      10.01043000      14.64100300      -0.99184503      -0.51883446       0.61428195
O       12.39751700       8.93366600      12.03734700      -0.62027328      -1.53072998       0.50559015
H       12.56028700       9.78778800      11.68079500       0.15200980       1.45676520      -0.66973211
H       11.43563100       8.80660700      12.06188300       0.49903265       0.11836357      -0.02661102
O       12.96139400      11.81696000      11.81774400      -1.01444354       0.28927134       1.87659995
H       13.29312200      11.73274300      12.76201500      -0.11890880      -0.04499791      -1.24162628
H       12.00000000      12.00000000      12.00000000       0.95544438      -0.14897045      -0.48754943
O       10.43712500      11.32587000      15.06538000      -1.20464276       1.42515097      -0.87080129
H       10.14078100      12.17527100      15.46841600       0.47757556      -0.92743179      -0.01008448
H       10.04440100      11.45680000      14.16336100       0.81688849      -0.37757229       1.01840987
27
Properties=species:S:1:pos:R:3:REF_forces:R:3 REF_energy=-18720.184934753815 charge=0 spin=1 external_field="0.0 0.0 0.0" config_type=ORCA_DFT source_file=C_DFTprod_cutcluster_0005.out orca_step=0 pbc="F F F"
O       11.59139300      12.51858100       8.04897600       1.04809578       0.54466181      -0.34352805
H       11.59231200      13.16795600       8.78706200       0.13323288      -0.01437334      -0.17215512
H       10.84876900      11.97619100       8.23251700      -1.00123655      -0.99903157       0.26604379
O       11.53042900      10.39273700      11.40579700      -1.30727282      -0.41098285      -0.87195129
H       10.53555500      10.21040900      11.30202300       2.12489531       0.30428412       0.01197270
H       11.96175200      10.32293500      10.52123800      -0.75477449       0.10927935       0.82123468
O       14.53051500      14.97329000      11.77360300       0.99238311      -0.50268290      -0.52952804
H       15.06721200      14.46975700      11.11238700      -0.12334647       1.03154564       0.31038457
H       13.86558000      14.30577100      11.88818700      -1.04103990      -0.30097701       0.52222801
O        9.11255600      10.68771000       8.67566600      -0.03397754      -0.83526951       1.29534979
H        8.83054200      11.49025300       8.23834500      -0.51206254       0.23470903       0.31659867
H        8.70100900      10.57451200       9.57916800       0.47807903       0.56714848      -1.56956789
O       11.43816100      14.26707300      10.04171000      -2.33160652       1.20675590      -0.02507643
H       10.51578500      14.69328200      10.05045400       2.21561052      -0.96605871       0.06754602
H       11.56716400      13.86932300      10.92611500       0.00370928       0.13368802       0.03288148
O       14.27719200      11.29057300       8.86648500       1.01047622      -1.16052257       0.56677536
H       13.64379400      11.01238300       8.19003000       0.10395722       0.15597475       0.11785182
H       14.90365300      10.54255900       9.06873600      -1.16527073       1.06677500      -0.57589306
O       15.51775700      13.76790000       9.55552900      -1.02582931      -0.96760960       1.64154613
H       16.03659200      14.06774600       8.85678300       1.29419460       0.79566413      -1.79297960
H       15.09928900      12.94327700       9.27128600      -0.16417179      -0.04127968      -0.14435758
O        8.69100100       9.36488300      11.52253400       1.37097859      -1.56572897      -1.32932194
H        7.87672400       9.53605500      11.95806800      -1.11699276       0.01712915       0.61986587
H        8.70826200       8.40152100      11.25377300      -0.20795758       1.68478983       0.56295162
O       12.11763700      12.95261100      12.25987200       0.05374403      -0.72904361      -0.19902052
H       12.00000000      12.00000000      12.00000000      -0.03886300       0.57904765       0.19145978
H       11.91275900      12.99942000      13.19363200      -0.00495457       0.06210752       0.20868916
27
Properties=species:S:1:pos:R:3:REF_forces:R:3 REF_energy=-18720.344609654545 charge=0 spin=1 external_field="0.0 0.0 0.0" config_type=ORCA_DFT source_file=C_DFTprod_cutcluster_0006.out orca_step=0 pbc="F F F"
O        8.90675800      11.63066600      14.15340200      -1.10049302      -0.20200640       0.33858058
H        8.93289500      10.68222300      14.40947300      -0.23377906       1.00366722      -0.37926510
H        7.96448000      11.93540100      14.15731300       1.22202774      -0.72614016       0.14181496
O       12.71134400      11.31332400      11.95578500       0.12164450       1.11040781       0.62587711
H       13.52895300      11.68730500      12.36724800      -0.84056912      -0.19327997      -0.72928277
H       12.00000000      12.00000000      12.00000000       0.73706005      -0.63247152       0.27868493
O        8.67543300      10.86430500      11.10367100       0.10313230       0.34975861       0.33636053
H        9.16386300      10.52892900      10.34333000      -0.46140018      -0.23778685      -0.02320791
H        7.73266800      10.66864000      11.03028100       0.43143294      -0.12961703      -0.43214684
O       12.15741300      14.98806000      12.50595200      -1.02503283      -0.68399597       0.61034554
H       11.44236000      14.30362500      12.32846700       0.90654497       0.90147969       0.09894968
H       12.03556100      15.11800500      13.46546400       0.31779511       0.12642398      -0.64036090
O       13.63096200      11.83927000       9.14817200       0.81904390       0.48369658      -0.89476474
H       13.04266900      11.49363400       9.80780100       0.01175550      -0.28567195       0.71827084
H       14.50248900      11.96889100       9.57222900      -0.81097757      -0.14710619       0.11953661
O       15.41032800      12.69486200      11.35700200      -0.02331456      -0.72014029       0.16966732
H       15.01524200      13.59027700      11.25350800       0.45866262       0.00686994      -0.08056419
H       16.37054200      12.76229600      11.40066600      -0.27978196       0.21818980      -0.01998267
O       12.78696300       8.80148900      10.99293400       0.07525985       0.04694182       1.27821843
H       12.90455200       8.10056200      11.69302600      -0.19654265       1.60756453      -1.00532378
H       12.78130300       9.73145500      11.40712800       0.02805963      -1.95654383      -0.32563358
O       10.32939100      13.04835500      12.27978500      -0.54496608      -0.62937715      -1.33672358
H       10.01236200      12.78938700      11.38869300       0.25660604       0.40319565       0.45711292
H        9.73296600      12.49887200      12.81902200       0.22884255      -0.10501492       0.61877536
O       14.59420000      15.15336800      11.05546600      -0.33563739       0.39929132      -0.14082663
H       13.69999100      15.33146700      11.40626900       0.14561824      -0.17908079       0.12990716
H       15.19998500      15.66567800      11.59468000      -0.01099157       0.17074600       0.08598063
27
Properties=species:S:1:pos:R:3:REF_forces:R:3 REF_energy=-18720.075596556962 charge=0 spin=1 external_field="0.0 0.0 0.0" config_type=ORCA_DFT source_file=C_DFTprod_cutcluster_0007.out orca_step=0 pbc="F F F"
O       10.44256500      12.42885900       8.51585600      -0.74535196      -0.20607666      -1.69255076
H       10.08065100      12.48858200       7.58626900       0.68032953       0.00034797       1.68024931
H       10.76439200      13.29534100       8.75663900       0.10674121       0.37780317      -0.20356464
O       10.60640100      11.10831300      10.89465800       0.01122837       0.56477335       0.84373194
H       10.59179200      11.46567100      10.00393700      -0.09620169      -0.04069918      -0.45880475
H       11.06468000      10.25878000      10.87578700       0.14885645      -0.54269441      -0.01929356
O       14.53828400       9.85237300      10.17729000      -1.18801667      -0.03435729       0.55356241
H       14.14599300      10.74836300      10.23473000       0.46141016      -0.30039933      -0.38761646
H       15.42301100       9.93382400       9.84654300       0.51973867       0.14740280      -0.22173972
O        8.48587600       9.37707800      11.91647800      -1.50801634      -3.09666799      -1.19727356
H        8.98746100      10.13749600      11.89215800       1.82813188       2.91119621       0.13741802
H        8.70220500       9.00213200      11.03115800      -0.41726436       0.16525875       1.07627091
O       11.82433100       8.61657800      11.04020500       0.65609138      -0.36677705      -2.29069826
H       11.66695200       8.19060700      10.14464500      -0.06629395       0.49647949       1.63399311
H       12.73905200       8.93716600      10.86855400      -0.22939461      -0.19568467       0.51799685
O       12.84748200      12.39865500      12.41730700      -2.19720543      -0.41043968      -0.97612582
H       12.46327400      13.21079600      12.79924200       0.59500314      -0.02965608      -0.05371745
H       12.00000000      12.00000000      12.00000000       1.68160979       0.27836950       0.68884960
O       13.92798800      12.57138900       9.67275800      -0.27230000      -0.08509200      -0.36834455
H       13.43588700      12.90974400      10.43301500       0.24605125      -0.11752333       0.45313038
H       14.85993500      12.69002100       9.86531400       0.07201434       0.31660952       0.15894977
O       15.76666300      11.96495600      13.32815700      -0.68043572      -0.05676369       0.97004870
H       14.87768800      11.92359000      12.95669300      -0.21238887       0.00844710       0.00810962
H       16.35200600      12.04063600      12.59889500       0.77381402       0.06204515      -0.95858349
O       11.91023200      15.06996000      12.53156800      -1.39251179       0.04748884      -0.86627018
H       10.97656500      15.00953500      12.86706500       1.25533921       0.21715539      -0.61545684
H       11.83863300      15.17137700      11.54330200      -0.03097804      -0.11054582       1.58772919
27
Properties=species:S:1:pos:R:3:REF_forces:R:3 REF_energy=-18720.54863886981 charge=0 spin=1 external_field="0.0 0.0 0.0" config_type=ORCA_DFT source_file=C_DFTprod_cutcluster_0008.out orca_step=0 pbc="F F F"
O        8.40734300       7.77986100      11.45650800      -0.92136990       0.93625860      -1.51429107
H        8.04423000       7.44241000      10.60646200       0.50632265       0.13151867       1.08228549
H        8.79955300       7.06470200      11.92271600       0.44726323      -1.07995777       0.37714996
O        8.09893300      12.07424800      15.31086900      -0.06676651      -0.32868893       1.07495245
H        8.08121100      11.12568900      15.59857100       0.13077439       0.52085659      -0.59487238
H        7.45971300      12.51513900      15.88871000       0.05869994      -0.04027675      -0.25677121
O        8.13007600       9.51732000      14.60650700      -0.27286863      -0.97485266       0.51243653
H        8.06488600       8.53301600      14.75786200       0.57480425       1.83674420      -0.68399988
H        8.82945200       9.76078700      13.96132100      -0.10351329      -1.03312923       0.07125988
O        8.68277300      15.06537300      12.19681800       1.70428651       1.27309221       1.77200063
H        8.11357700      14.31906600      12.12655300      -0.76266608      -1.31252049       0.01948351
H        9.04768100      15.02469800      13.14162400      -0.87390985      -0.27336377      -1.76199132
O        7.44220700      12.23150100      12.66471800      -0.04739058      -0.30924578      -0.24809651
H        7.69920100      12.00226000      13.58636400      -0.31903922      -0.05056188      -0.72283306
H        7.25244400      11.41718700      12.16015700       0.27020373       0.55527456       0.69760251
O        9.98970800      14.25268800      14.75085900      -0.94774819      -1.13762170       0.89803935
H        9.48945000      13.46308300      15.17547200       0.99525159       1.74794333      -0.95799424
H        9.92242400      15.01218100      15.34951300      -0.07309559      -0.51374939       0.03730229
O       10.43249400       9.57638400      12.72213700       1.25770976       2.46447368       1.54622438
H       10.97513900      10.45246400      12.72310000      -1.15248741      -1.90015784      -0.24957001
H       10.42176600       9.30406500      11.82186000      -0.22419682      -0.28826727      -1.16175038
O       12.00000000      12.00000000      12.00000000       0.31542579       1.20835980       0.18580778
H       12.96670800      12.02459100      12.09125100      -0.40145465      -0.23319239      -0.05594798
H       11.78441000      12.97631400      12.03437900       0.06806837      -0.99619585      -0.01294545
O       11.63072700      14.94885300      12.08352000       0.06543669      -0.62553638      -1.41783890
H       11.57705700      15.16558000      12.99516700      -0.09410639       0.20903955       1.34886170
H       10.70311800      14.86537500      11.80493200      -0.13363387       0.21375690       0.01549589
27
Properties=species:S:1:pos:R:3:REF_forces:R:3 REF_energy=-18719.615214192785 charge=0 spin=1 external_field="0.0 0.0 0.0" config_type=ORCA_DFT source_file=C_DFTprod_cutcluster_0009.out orca_step=0 pbc="F F F"
O       12.84090200      14.49234400      14.38869100       1.35343904       1.33111050      -1.20433325
H       13.11106500      15.38901800      14.68621100      -0.44994401      -0.78876669       0.14145635
H       13.34489800      14.45875500      13.52310900      -0.78946490      -0.30555177       0.76020646
O       11.40471600      12.42267900      15.40342000      -1.10481658       0.55680668       1.53395651
H       11.76540000      13.27546900      15.12653000       0.56611258       0.09732341      -0.11902614
H       10.85859100      12.66560300      16.19372100       0.67549740      -0.56692166      -0.92359185
O       10.04268200      11.90617700      13.09969700      -0.71634899      -0.56775418       1.32171785
H       10.24965000      12.38245100      13.96121500      -0.51716561      -1.09986860      -1.43581390
H        9.50864900      11.10516300      13.33555500       0.85845038       1.11858114      -0.14854570
O       12.18070200       9.78117700      14.68144800      -0.00692794      -0.34820761      -0.31086131
H       12.02126000      10.70633400      14.87186600      -0.19883643       0.51698080       0.09139866
H       12.72449600       9.46761300      15.40213900       0.18955933      -0.18840778       0.15488532
O       11.81923800      12.31220100      11.11750900       0.92088042       0.63572587      -0.95404698
H       12.00000000      12.00000000      12.00000000      -0.31001891      -0.30117200       0.44882008
H       10.86901200      12.36299400      11.06595400      -0.50867038      -0.09975881       0.47934504
O       13.32293900      14.86184500      11.40273800       0.04109924       1.80009564       0.10439122
H       12.52122700      14.39708300      11.26412000      -1.13579514      -2.64687377      -0.11220938
H       12.89768700      15.69001400      11.12116100       1.18216566       0.62044899       0.17448921
O       11.45598500       7.54087100      12.96141000       0.37897904       0.75349413      -0.02182013
H       10.69634700       7.19133700      13.46180200       0.68276848       0.94997903      -0.09312032
H       11.73868400       8.46703500      13.23136300      -1.06459635      -1.74487235       0.18976640
O       11.16642900      10.25554200       8.93256000      -0.97786923      -0.95051598      -1.13717634
H       12.02697900      10.22932600       9.33503500       0.09381375       0.82054074       0.60573951
H       10.62609800      11.02502700       9.12408800       0.84614579       0.06099619       0.42837693
O       10.18189800      14.71719100      13.21575100       1.54010664       1.35570624      -0.83510064
H       11.13867400      14.68337000      13.54366300      -1.68788477       0.33516333      -0.77791761
H       10.16486800      15.37982600      12.45662300       0.13932146      -1.34428139       1.63901396
27
Properties=species:S:1:pos:R:3:REF_forces:R:3 REF_energy=-18719.046445430824 charge=0 spin=1 external_field="0.0 0.0 0.0" config_type=ORCA_DFT source_file=C_DFTprod_cutcluster_0010.out orca_step=0 pbc="F F F"
O       10.55850100      12.10484100      16.10506300      -0.16076204       0.37279003      -0.37470345
H       10.29884200      12.77841600      16.78563300       1.15072487      -0.73344621      -1.41538463
H       11.34681100      12.28617400      15.46998200      -1.27485794       0.49174933       2.02329034
O        8.37015200      11.48764900      11.03687400      -0.39852503       0.70417533      -0.20696621
H        8.55845600      11.03453500      10.22531300       0.48269653      -0.99497673      -0.43850954
H        7.94204300      12.24951700      10.62022200      -0.04680102       0.41348057       0.70180184
O       11.21834500       8.56194500      13.10285400       0.55822521       0.13632453      -0.10319807
H       11.82792900       8.20341000      13.77353200      -0.32204031       0.41598246      -0.48022652
H       11.65872000       9.33542400      12.70132600      -0.23583682      -0.43705991       0.58881373
O        8.93567900      15.47905700      11.48302900       0.29682859      -0.44634874       1.32670440
H        8.53732900      16.20746000      12.01766100       0.56822073      -1.15212211      -0.52654875
H        9.25610500      14.72934300      12.13552100      -1.29031974       2.25145402      -1.58876627
O       12.79888900      12.59347100      14.75240200       0.48730184       1.85396195       1.46871276
H       13.09812900      13.53804300      14.68764700      -0.38789002      -1.56028790      -0.21523868
H       12.79782500      12.19419700      13.90077900       0.11000728      -0.34219308      -1.73168768
O       11.68249800      10.45762800       9.90114300      -1.31257927      -2.78868796      -1.11348964
H       10.92271000       9.95291500       9.47054600       0.88957842       1.58674013       0.60120465
H       12.17981800       9.64393100      10.11979100       0.46141442       0.76533771       0.17453097
O       11.56292300      13.25430700       8.96224900      -1.08891837       4.34242531      -0.31817157
H       11.91220300      12.43634100       9.18325200       1.43268538      -1.97352304       1.28335117
H       11.85579300      14.02978000       9.54060100      -0.38614445      -2.35381165      -1.01181602
O        9.55812100      13.80489700      13.28578100       0.21318987      -1.70581328       2.52877903
H        9.96640200      14.26924000      14.04185500      -0.06759426      -0.01434815      -0.57768815
H        9.15302400      13.03385800      13.77927700       0.43129235       0.82660299      -1.11885543
O       12.00000000      12.00000000      12.00000000       0.08436587       0.84035495       1.17243444
H       11.64684300      11.41775800      11.31266000      -0.41930962       0.36491140      -0.01757380
H       11.32475400      12.65128300      12.29551100       0.22504744      -0.86367193      -0.63079892
27
Properties=species:S:1:pos:R:3:REF_forces:R:3 REF_energy=-18719.383242043885 charge=0 spin=1 external_field="0.0 0.0 0.0" config_type=ORCA_DFT source_file=C_DFTprod_cutcluster_0011.out orca_step=0 pbc="F F F"
O       13.35090300      14.49618900      10.04830600       1.84919014      -1.08758268       1.15345425
H       14.22672100      14.06390800       9.79311500      -1.79403437       0.99437057       0.38708614
H       13.43106200      14.51011800      11.05776300      -0.02995932      -0.05587229      -1.94068676
O       14.28938500      14.67934900      12.67048900       0.00669767       0.41040451       0.24821920
H       15.00635500      15.32073500      12.58634100       0.09305790      -0.16500534      -0.05245442
H       13.56182000      15.21682700      13.00756400      -0.10640558      -0.13972589       0.20477105
O       12.60990700       8.79044000      11.02918200       1.26962328      -0.82566541      -0.94495844
H       12.36993500       9.69811200      10.81826000      -0.27292164       0.18244863      -0.37390507
H       13.23126400       8.44378700      10.32534300      -1.44079737       0.70559237       0.95460841
O       11.39847800      12.06721000      11.21553700       0.72980913      -0.36477297      -0.29356858
H       11.89428200      12.29408500      10.39135300      -0.36024007      -0.08359382       1.21121038
H       12.00000000      12.00000000      12.00000000      -0.10724833       0.32671273      -0.92706212
O        9.12246100      13.48918400      10.82416400      -2.09357886      -3.61871057       1.49785905
H        9.61254000      14.18368300      10.56068200       2.22703527       4.10446805      -1.61424755
H        9.84245100      12.89426800      11.10415800      -0.39284670      -0.31114881       0.05977646
O       15.20487800      10.70248800      10.96971700      -0.23216894       0.44477532      -1.88839977
H       15.23155900      11.27463300      10.15491900       0.19797100      -0.71571388       1.26824363
H       15.04940700       9.80649500      10.61214400       0.30052321       0.38259262       0.54791555
O       12.55830700      10.93237500       8.53239900       1.26641927      -0.55663688      -0.05325660
H       13.38023900      10.89078100       9.07152100      -0.86584677       0.08498031      -0.56494736
H       12.78928900      10.42083100       7.72756700      -0.33802034       0.48525935       0.61771817
O       13.55462300      11.85302000      12.99723200      -0.84412383       0.33604264       0.98766678
H       14.02951300      11.42105700      12.31409900       0.81515330      -1.18261072      -1.22918980
H       14.07375000      12.64697100      13.09601700       0.06932307       0.79101728       0.36682343
O       14.60580400       8.35966800      12.83179300      -0.32533991       2.18953691      -0.57989735
H       13.91784600       8.75127600      12.20107700       0.68612171      -1.05744699       1.30428453
H       14.94555800       9.18742500      13.26202900      -0.30739289      -1.27371514      -0.34706306
27
Properties=species:S:1:pos:R:3:REF_forces:R:3 REF_energy=-18719.816884786982 charge=0 spin=1 external_field="0.0 0.0 0.0" config_type=ORCA_DFT source_file=C_DFTprod_cutcluster_0012.out orca_step=0 pbc="F F F"
O       13.12012600      13.62303000      14.05528600       0.63564715      -2.04467195      -0.33029792
H       12.65888300      14.25070100      14.57377600      -0.67914646       1.46921413       0.38954915
H       13.63279800      14.00934600      13.35961100       0.23078465       0.83590442      -0.19370513
O       12.77301500      13.64454800       9.54681700      -0.35665549      -1.00894271       2.94342555
H       12.42336200      13.16790900      10.41286700       0.66331083       0.86118541      -2.43536710
H       13.41001600      14.24958800       9.96401400      -0.28281458       0.00195512      -0.43352155
O       15.63394200      12.50974600       9.22832300      -2.04587841      -0.77275956      -0.71386613
H       15.71176200      13.44443700       9.13302800       0.59123118       1.22401222      -0.00759283
H       14.69666200      12.41287700       8.87959100       1.24953674      -0.20119845       0.46491550
O       11.70960900       9.93996800       9.86302900      -0.19735856       0.42922971       0.39032825
H       12.21065300       9.13608400       9.77235000       0.69979216      -0.44539234      -0.22481013
H       10.85394800       9.62577000      10.15624000      -0.45130649       0.04117730      -0.02770009
O       15.20216700      10.89852800      11.32443300      -0.37467460       0.91742979       0.14359787
H       15.21560300      11.64666400      10.69129100       0.01190493      -0.43610510      -0.36796217
H       15.73913900      11.29123700      12.00951700       0.36292996      -0.40374329       0.64359689
O        9.64207200      12.24220100      13.32868200       0.93321035       0.10864465      -0.64941175
H        9.82481800      13.14300000      13.02881400      -0.58884556       0.25956127       0.32858146
H       10.41613600      11.86304400      12.84298700      -0.60442032      -0.15273691       0.67752111
O       12.00000000      12.00000000      12.00000000       0.98595617      -1.24310312      -0.13482074
H       12.75857600      12.02828900      12.61943200      -0.68636041       0.21688691      -0.16510350
H       12.06261000      11.08118100      11.63560400      -0.02623729       0.89730201      -0.27252595
O       11.09759100      13.54034700      16.02783900       0.36609606       1.13609133       0.80387655
H       10.38540300      13.07499400      15.62075100      -0.82556910      -0.64714029      -0.69072363
H       11.88868900      13.10125200      15.74436600       0.40115789      -0.72500271      -0.07502294
O       15.07054900       8.68539600       9.76840600       0.22568286      -0.11202272      -1.96556974
H       14.77034200       7.91570300      10.21072100      -0.32249437      -0.82638507       0.85492596
H       15.04647300       9.43784900      10.34163300       0.08452065       0.62060989       1.04768302
27
Properties=species:S:1:pos:R:3:REF_forces:R:3 REF_energy=-18720.609141795798 charge=0 spin=1 external_field="0.0 0.0 0.0" config_type=ORCA_DFT source_file=C_DFTprod_cutcluster_0013.out orca_step=0 pbc="F F F"
O       10.82716700      10.24066600      10.01489100       0.12468720       0.93860771      -0.17212226
H       11.11393400       9.50184400       9.50180600       0.80877974      -0.56185869      -0.88267829
H       10.15222500       9.80990500      10.52511400      -1.12883953      -0.39108158       1.18922951
O       10.20296600      14.34850900      13.49831500      -1.14282197      -1.24270049       0.12461351
H       10.49193300      13.57447100      12.96680400      -0.09720180       0.53969141       0.34274818
H        9.32244500      14.05276000      13.85806500       1.37730901       0.56467816      -0.51733397
O       10.56887200       8.64487800      14.52045600       1.03438265       0.55412723       0.42938876
H       11.27856900       8.07960700      14.87480100      -0.58405559      -0.10233634      -0.31779336
H       11.01901500       9.51899700      14.64178400      -0.41274349      -0.34868409      -0.40095256
O        9.64769000      12.77856900       8.68565500      -0.94251548       0.08014916       0.07698979
H        9.83191500      11.89643900       9.03366300       0.07659389      -0.00228232       0.22928303
H        8.93547300      13.18548400       9.21814000       0.38128162      -0.70121979      -0.29258956
O       10.74833100      15.11848200       9.11809100      -0.40206446      -0.30482528      -0.21128998
H       10.36964900      14.21897500       8.87559400       1.52176475       1.26803177       0.45200938
H       11.64192200      15.03026900       9.48355900      -0.53246142      -0.47215809      -0.20995111
O        9.03571800       8.94090800      11.92517400      -0.82759467       0.86981789      -1.24288062
H        8.59262400       9.75671800      12.20537600       0.09142792      -0.43177603       0.05297121
H        9.63174800       8.72863100      12.62650400       0.85156296      -0.35316064       1.28810813
O       12.40730500      10.86888100      14.46062200      -0.01258421       1.25047648      -0.23636086
H       12.46849700      11.50156800      15.19590100      -0.01863525      -0.41717335      -0.21094448
H       12.38751400      11.46696900      13.65474900      -0.13266739      -1.01363611       0.54550663
O       12.00000000      12.00000000      12.00000000      -0.48948522      -0.22353620       0.29341401
H       11.65808400      11.36362200      11.33533600       0.44611034       0.54909568       0.10938127
H       12.47079100      12.73194500      11.57558900       0.01890630      -0.29655821      -0.50109858
O       13.21718900      14.22854200      10.83874200       0.17725228       0.54832409       0.38245754
H       13.05889600      14.80152900      11.60339600      -0.28625040      -0.03455717      -0.07927833
H       14.10001400      14.50504000      10.57080300       0.09986222      -0.26545521      -0.24082708
27
Properties=species:S:1:pos:R:3:REF_forces:R:3 REF_energy=-18719.232655157073 charge=0 spin=1 external_field="0.0 0.0 0.0" config_type=ORCA_DFT source_file=C_DFTprod_cutcluster_0014.out orca_step=0 pbc="F F F"
O       14.52844100      11.28767300      11.49652400       1.00599366       2.04279797      -0.90451843
H       14.69030900      12.26439300      11.33704600       0.13150283      -1.76632317       0.14863950
H       13.74592200      11.37619000      12.03172300      -0.71192361      -0.30189700       0.53191778
O       13.69798600       8.34102800      10.49537700      -0.19126433       1.17153785      -1.33937222
H       13.60645600       9.07725400       9.80068800       0.27163347      -1.49834092       1.25573670
H       12.92297200       8.46253900      11.04664600      -0.04750910      -0.02263008       0.13821146
O       11.86751600      13.53518300       8.65408000      -0.13513318       0.83600284       0.16196069
H       12.14910400      12.69774600       8.32469000       0.34792906      -1.07275559      -0.73341592
H       11.71292300      13.32963600       9.57199300      -0.20188304       0.16669224       0.62425191
O       14.40083900      11.93234800      14.68838000      -2.71486511      -0.42510705       0.21280894
H       13.43703800      11.68016900      14.88514200       2.07117689       0.58011198      -0.72965280
H       14.80739800      11.71974900      15.52185900       0.60600824      -0.09475056       0.50763752
O       12.72641100      14.74534400      12.38122600       1.06881985      -0.43539800      -0.44815180
H       13.43741400      14.45434200      11.74131200      -1.01596331       0.65717021       1.37460256
H       13.13528400      14.88107700      13.26240100      -0.11708136      -0.23753982      -0.95221157
O       13.15408100      10.58611500       8.85530600       0.46797048       0.42996803      -0.77415521
H       13.98991700      11.05259100       8.65237100      -0.50916398      -0.44012569       0.21738689
H       12.94660800      10.88817600       9.73948000       0.12219518       0.30896255       0.60408063
O       10.24047200      13.47327100      14.82382900       1.96815812      -1.98221707       1.27433020
H        9.89590400      12.76503300      14.25237600       0.02767232       0.42050848       0.20053490
H       10.95043700      12.96432200      15.37947400      -2.00369782       1.56720767      -1.48249953
O       12.00000000      12.00000000      12.00000000       0.30626397      -0.80243220      -0.21173252
H       11.22956400      11.53503900      11.67815200      -0.51718479      -0.50389229      -0.04139692
H       11.72357100      12.86909900      12.23655800      -0.16064521       1.47936818       0.41627238
O       10.02502600      10.00522800      12.01299700      -0.01667551      -1.58749002      -1.05936421
H       10.22038700       9.87675400      12.93078300       0.17168332       0.19367417       1.03047200
H       10.08809000       9.06748800      11.69406600      -0.22401705       1.31689734      -0.02237297
27
Properties=species:S:1:pos:R:3:REF_forces:R:3 REF_energy=-18719.689958415343 charge=0 spin=1 external_field="0.0 0.0 0.0" config_type=ORCA_DFT source_file=C_DFTprod_cutcluster_0015.out orca_step=0 pbc="F F F"
O       12.04681600      10.35620300      14.60639800       0.95805636       1.16722420       0.43452608
H       11.82741700      10.74541900      15.47661500      -0.10558328      -0.45777518      -0.51337205
H       12.73982300      10.98527200      14.29702400      -0.63603698      -0.66750682       0.00738750
O       10.80941100      14.85393700      10.58639700      -0.03858681       0.32577396       0.53056420
H       11.22396500      15.53766900      11.14889300      -0.66594457      -0.34782190      -0.29372151
H        9.91427600      14.69279700      10.95224900       0.71223918       0.29130102      -0.13291504
O       11.35184700      12.68892300      12.15168100       0.09532618       0.69253312      -0.20696174
H       11.54162700      13.40324600      11.49093900      -0.39844384      -0.75314194       0.20294819
H       12.00000000      12.00000000      12.00000000       0.48430748      -0.01507896       0.02379129
O        9.33306600      10.40652500      13.94145700       0.61019574      -0.06787718      -0.52045081
H       10.30542000      10.32494200      13.89369300      -0.30134062      -0.04106283       0.47494167
H        9.14280000      10.67691800      13.03724200      -0.47679651       0.11910981       0.08448054
O       10.88462000      11.14638400       9.73464800       1.59238540       0.07633961       1.18575600
H       10.38759400      11.16757100      10.57642700       0.31323367       0.14497727      -0.67010224
H       11.83123000      11.31569800      10.04472800      -1.87162199      -0.28846294      -0.80107044
O        9.50390600      13.72465900      13.88911700      -0.69313141       0.51017396       1.16006939
H       10.10797800      13.13480200      13.43217600       0.29766209      -0.36519309       0.27240418
H        9.48103400      13.51706100      14.85329200       0.23592331      -0.00655806      -1.45149336
O       13.55099800      10.83349800      11.85402300       0.63812811      -3.05087931      -0.32998435
H       13.13014800       9.91757000      11.98762600       0.59088059       1.94522908      -0.10521479
H       14.42934100      10.53685000      11.47440400      -1.33907675       0.91300420       0.50595601
O       12.62320100      14.69450700      14.08482900      -0.74173365      -0.03615187       0.16485961
H       12.39093500      14.27596800      13.24899300      -0.09629445      -0.29317356       0.06665513
H       13.53893300      14.91977700      14.03053300       0.88653706       0.20581343      -0.09987857
O       13.94196500      13.65708900      10.46880400      -1.18276174       0.71997368      -0.94580875
H       14.65713100      13.74633000      11.06105700       1.41373892      -0.24818676       1.21715153
H       13.82606100      14.58306000      10.19671800      -0.28126143      -0.47258289      -0.26051751
27
Properties=species:S:1:pos:R:3:REF_forces:R:3 REF_energy=-18719.18268025062 charge=0 spin=1 external_field="0.0 0.0 0.0" config_type=ORCA_DFT source_file=C_DFTprod_cutcluster_0016.out orca_step=0 pbc="F F F"
O       10.71303200       9.81969400      16.18013200       1.33837649       0.87868198      -2.18035550
H       10.01086000       9.17677300      16.19532800      -0.29811820      -0.36379955      -0.30715244
H       11.04139300       9.91869500      15.21498800      -1.04389275      -0.46058761       2.42665198
O       12.02642200      14.69544000      16.45427400      -0.00166469      -1.85160754      -0.04991468
H       11.74358300      14.24689300      17.28072100       0.28446775       0.44867975      -0.85619089
H       12.38726400      13.95029700      15.84819100      -0.53942026       1.76315264       1.43611513
O        9.87110200      11.95277800      13.26177900      -0.09178263       0.13563624      -0.53113035
H        8.98366600      12.00337500      12.87673100       0.18365052      -0.31917034      -0.18640504
H        9.69990600      12.19398300      14.16528900       0.24413279       0.22556192       0.82578034
O       12.47863200      16.03852100       9.83545100      -1.10045183      -1.03836189      -2.04182795
H       12.04121000      15.61756100       9.02698500       1.20502318       0.71271952       1.56312589
H       11.74251700      16.56730900      10.15183000      -0.17657932       0.31979132       0.55775500
O        9.86688500      16.85757400      11.52077100      -0.92256711      -1.71495905      -0.65675128
H       10.06416700      16.99661100      12.44827600       0.03125757      -0.14197838       0.24317722
H        9.41736400      15.95780400      11.45600900       0.97798071       1.85855780       0.35234899
O        7.89843100      10.37643900      12.26019200       0.07602624      -1.06626279      -1.56460767
H        8.53136500       9.69529500      12.56015600      -0.29891642       0.54671412       0.00570389
H        7.72942300      10.10222400      11.31886500      -0.01873470       0.48159363       1.39478752
O       10.58873900       9.86407000      10.30964700       1.00344466      -1.09309338      -0.35994321
H        9.90410300       9.29830300       9.95958500      -0.17556990      -0.20178929      -0.21044028
H       10.15740400      10.62393100      10.64071000      -0.77593148       1.31054959       0.61615556
O       12.90753100      11.64967500      11.94339400      -0.47667145      -0.75733191      -0.68634452
H       12.00000000      12.00000000      12.00000000       0.35256620      -0.34183971      -0.08665534
H       12.85166300      10.87844600      11.31979500      -0.05023458       1.11104668       0.91650573
O       13.34466600      13.44178200      14.63430000      -0.19797768      -0.45477728      -0.84043285
H       12.90438800      13.03745400      13.88042500      -0.47604272       0.12239429      -0.22015618
H       14.18311600      13.00472400      14.54275100       0.94762966      -0.10952067       0.44020077
27
Properties=species:S:1:pos:R:3:REF_forces:R:3 REF_energy=-18719.962732833017 charge=0 spin=1 external_field="0.0 0.0 0.0" config_type=ORCA_DFT source_file=C_DFTprod_cutcluster_0017.out orca_step=0 pbc="F F F"
O       11.90496500      14.27532400       8.95477000      -0.38054849      -0.07969598       0.84806944
H       12.63308300      14.16126500       8.35177400       0.40698268      -0.10666911      -0.17345033
H       12.18767900      13.88876700       9.80809000       0.13482079       0.19414067      -0.75040161
O       12.00422000      12.81856700      11.46647300       1.38809330      -0.33517119       0.37009984
H       11.14494500      12.87183700      11.11186800      -1.76690059       0.20284278      -0.70301628
H       12.00000000      12.00000000      12.00000000       0.19986775       0.26667129       0.05448862
O       15.73693000      13.45710400      11.99045700       0.22417723      -0.40415878      -0.37551849
H       15.26991500      12.63953400      11.70352700       0.40655531       0.67670731       0.08116706
H       15.11470300      13.87580700      12.57731700      -0.35891117       0.42625160       0.49767218
O       11.05525700       9.34667800       9.90422400       0.98533685      -0.82273801      -0.70247825
H       11.99348600       9.54262600       9.67618600      -0.88577642       0.03477968       0.37658221
H       10.91252600       8.49458300       9.43401400      -0.06566428       0.79154260       0.47729366
O       12.05279500      11.19431300      13.55495100       0.33515114      -1.09658257      -1.11149359
H       12.92390600      11.11582200      13.92377900       0.76629051      -0.23248354       0.23886836
H       11.58181100      11.68875700      14.18832000      -1.05177400       1.04680750       1.15978168
O       13.27845600      14.73745100      13.04398400       0.84901314       1.09447021      -0.12505163
H       13.67492500      15.42837800      12.46329500      -0.57727914      -0.80390077       0.59059365
H       12.94390900      14.05517100      12.45373000      -0.39864968      -0.09764732      -0.41115522
O       14.90833200      11.09708600      11.28130700       1.59512126      -1.01805624      -1.17211763
H       14.86505900      10.66798800      12.13480300      -0.11309919      -0.42018817       0.37786879
H       15.81659700      10.82585700      10.93999000      -1.72028880       0.52894821       0.57114994
O       10.48830800       8.40892200      12.64570300       0.15674834      -1.27611614       1.72228269
H       10.74167100       8.78464600      11.82237600      -0.24709640       0.94239885      -1.46117264
H        9.67736000       8.75577800      13.01138600      -0.13311245       0.41884960      -0.44441779
O       13.18755200       8.32136200      13.16034600       0.21385666      -0.09584544       0.40534087
H       12.29801600       8.71712100      13.19038900       0.08431090      -0.39223791       0.06413473
H       13.12232900       7.51429000      13.70150000      -0.04722520       0.55708091      -0.40512037
27
Properties=species:S:1:pos:R:3:REF_forces:R:3 REF_energy=-18719.504222890813 charge=0 spin=1 external_field="0.0 0.0 0.0" config_type=ORCA_DFT source_file=C_DFTprod_cutcluster_0018.out orca_step=0 pbc="F F F"
O        9.66137800      10.01767500      13.22336600       1.29452838      -2.03326540       1.45645569
H       10.55441200      10.26791100      13.53911200      -0.95507023       0.29202859      -0.61346547
H        9.28543500      10.72322300      12.75469600      -0.52467653       1.88599378      -0.71221558
O       11.87947000       9.16750900      11.49010700       1.22055136       0.24324268       0.29088306
H       12.41658800       9.15010000      12.31442900      -0.54668491      -0.06674075      -0.59501554
H       11.22531200       8.48051100      11.57730700      -0.44870191      -0.23336434       0.17442720
O       12.91468000      10.17111600      14.03532600      -0.23518227      -1.21089995       0.78505823
H       13.88952300      10.20365900      14.01613600      -0.62385396      -0.22713477       0.34526524
H       12.61341300       9.49225500      14.70657100       0.97245130       1.19657757      -0.97131024
O       12.00000000      12.00000000      12.00000000       0.20340688      -0.48084996      -0.10474361
H       12.11445600      11.04313900      11.77290600      -0.18789747       1.06602481       0.53973162
H       12.44462800      12.19383900      12.84436300      -0.33869510      -0.44064752      -0.04960574
O        9.21355800      13.44098700      12.43303100       0.16570807      -0.29437421      -0.13697347
H        9.86326000      12.79018900      12.05456800      -0.86302627       1.33280244      -0.26276512
H        8.76961300      13.99675400      11.75397700       0.95248154      -1.09647397       0.27907975
O       13.22655200      13.58023000      14.00441200      -0.91438663       1.68771271      -1.29975378
H       14.14642400      13.78986000      14.09125400       1.15897487      -0.31508481       0.46698097
H       12.97309600      14.37405100      13.44850600      -0.28308532      -1.30700620       0.94011967
O       10.08055900      11.19905800       9.99162300      -1.96838417      -1.09368921       1.08809032
H       10.89665300      10.71560700      10.07490300       0.58968852      -0.44634678       0.00557605
H        9.45147400      10.62559000      10.53960500       1.26175627       1.24102336      -1.24993989
O       11.18366400      13.95296700       9.89551100       0.11024521       0.88116705       0.33097927
H       11.36409900      14.32972500      10.78031100      -0.12336915      -0.71720378      -0.77418313
H       11.38116000      13.01163700       9.93734500      -0.10509035       0.13717829       0.39069335
O       14.72614700      12.97779700      11.31498600      -1.36075717       0.84114767       1.49220370
H       13.88025200      12.83158300      11.85283500       1.52114224       0.07267332      -1.45478299
H       14.87723300      13.94017500      11.44338100       0.02792686      -0.91449066      -0.36078956
27
Properties=species:S:1:pos:R:3:REF_forces:R:3 REF_energy=-18719.73892314794 charge=0 spin=1 external_field="0.0 0.0 0.0" config_type=ORCA_DFT source_file=C_DFTprod_cutcluster_0019.out orca_step=0 pbc="F F F"
O       12.00000000      12.00000000      12.00000000       1.76169492       0.54036648      -0.79264741
H       11.57320000      12.73250800      11.55972900      -0.48798462      -0.01090266      -0.07129582
H       11.35180100      11.49694100      12.45723300      -1.18319595      -0.77291985       0.49098237
O       12.41493200      13.75364700      14.05861500       0.02707963       0.20198151      -0.44949397
H       12.73315600      13.20225900      13.32175400       0.12268385      -0.40819176       0.45469798
H       11.75306000      14.25357700      13.56825500      -0.23811754       0.31402407       0.30825951
O       12.91699100       7.81236100      12.16204200      -1.10977866      -0.78579295      -1.61410876
H       12.43750000       8.32678900      12.79975500      -0.11288897       0.46567449       0.67667959
H       12.20632000       7.56512700      11.50805200       1.18402991       0.25613265       0.82974226
O        9.44944200      12.75955600       9.47851000       0.69449965       3.14147497       0.45722728
H        9.34808200      13.60469500       8.94839000      -0.14834793      -1.77417917       0.18967014
H        9.84824300      13.23455000      10.27493500      -0.68795722      -1.35819465      -0.86596365
O       10.09927600      14.30946600      11.76217600       0.43444952       0.69696616      -0.18171360
H        9.18018900      14.40563800      12.08236100       0.77401894       0.42474679      -0.29967202
H       10.49184300      15.16375600      11.45018500      -1.08507781      -0.86318429       0.59595409
O        9.84228800       9.95596300      12.61552100      -0.30162668       1.10823836      -0.48901712
H       10.20413200       9.26272400      13.13716300       0.39531758      -0.97696559       0.68816821
H        9.34158100      10.49316300      13.24167800      -0.08396874      -0.00975991      -0.01705022
O       10.35715700      12.52717200      15.58334900       0.26737217      -1.33472064       0.92123852
H       11.13476900      12.86906600      15.09912100       0.11309996      -0.21765639       0.34040843
H       10.67402300      11.83778600      16.23903800      -0.35667770       1.46104465      -1.33060204
O       14.44824700      10.21026200      12.25647200      -1.45558846       0.54511171      -1.50389800
H       14.05394900      11.04622100      11.87352300       0.61260281      -1.31996600       0.74465185
H       13.93612500       9.50760400      11.76477900       0.89076590       0.77983493       0.84439642
O        9.46337400       9.86836700       9.53845600       0.02086599      -1.44784486       0.38599507
H        9.72649200       9.91744000      10.46448100      -0.10727780       0.11462426      -0.04427651
H        9.49663500      10.75052300       9.21202800       0.06000719       1.23005770      -0.26833264
27
Properties=species:S:1:pos:R:3:REF_forces:R:3 REF_energy=-18719.516613026124 charge=0 spin=1 external_field="0.0 0.0 0.0" config_type=ORCA_DFT source_file=C_DFTprod_cutcluster_0020.out orca_step=0 pbc="F F F"
O       11.47132300       9.49435400      12.55492800      -0.38104538      -0.46250781       1.83511782
H       11.70271000       9.70733300      11.67403500       0.29761015       0.36116366      -1.46515117
H       10.68230800       8.94436800      12.50386700       0.02470398       0.13681484      -0.17923696
O       12.28582300      10.44940200      15.63121500       0.65971437      -1.28945795      -0.43640870
H       12.04332600       9.85760400      14.85307600       0.84280686       0.98548756       1.43285446
H       13.08887400      10.07673200      16.09823500      -1.52126066       0.39094814      -1.17583514
O       11.31276400      14.68895500      14.73706900      -0.43596189      -0.90300919       1.16933961
H       11.54571100      13.85114500      15.20869700      -0.36077229       0.95160654      -0.61572768
H       10.35223600      14.80908800      14.90684000       0.89809046      -0.26279417      -0.25721817
O       12.16892500      11.90346600      11.04079500      -0.08503220      -0.40103787       0.46799717
H       12.00000000      12.00000000      12.00000000       0.09714153       0.01758676      -0.71215825
H       11.78542300      12.67491500      10.62134500       0.09056059       0.27005625       0.23791412
O        8.64355500      10.50202700      11.07508200       0.73638138       1.07247827       0.50355337
H        9.03987400      11.37004500      10.85673200      -0.07051914      -0.46778166       0.33861477
H        8.21847800      10.27786500      10.26315500      -0.60660910      -0.56776955      -0.81335872
O       11.46344100      15.39616900      12.17280400       1.03600866       0.37200832       0.55760161
H       11.50280500      14.90143000      13.01748800      -0.01075451       0.43866875      -0.15275938
H       10.80959900      14.94840700      11.67244700      -0.98786702      -0.61202580      -0.60789214
O        9.57682800      13.52297600      10.85461900      -1.00778381       0.68035030      -1.38873021
H        8.69516700      13.93849500      10.77948100       0.05731550      -0.34603349       1.00415408
H        9.84202700      13.79112700       9.95880400       0.72303170      -0.38763451       0.09642419
O       11.25361300       9.82528900       8.74502600      -1.35671334      -0.20447476      -1.40652590
H       11.59022100      10.37194200       9.42737600       0.78696367       0.92841133       1.28389877
H       10.51522800      10.36192000       8.38833500       0.63960068      -0.64267006       0.18194608
O        9.17933600      12.83356000      13.65304700       0.83637678       2.25962730      -0.79742565
H        9.39811400      12.44995300      12.81756500       0.59373328       0.23611661      -1.26429817
H        8.83559900      12.07942100      14.02740400      -1.49572035      -2.55412785       2.16331022
27
Properties=species:S:1:pos:R:3:REF_forces:R:3 REF_energy=-18719.60872020536 charge=0 spin=1 external_field="0.0 0.0 0.0" config_type=ORCA_DFT source_file=C_DFTprod_cutcluster_0021.out orca_step=0 pbc="F F F"
O       11.91727200      12.68874900      12.69882100       0.12760077      -0.50872067      -1.00350529
H       12.41845400      12.42426000      13.46623800       0.42277079      -0.38577966       0.45270877
H       12.00000000      12.00000000      12.00000000       0.05886315       0.59636382       0.74810860
O       11.89619700      15.94964000      10.87864800      -0.07864455      -0.11790849      -0.11164122
H       11.32684700      15.43388500      11.48455400       0.03141996       0.33014016      -0.49173899
H       11.72124100      15.64350500       9.97580300      -0.03389979      -0.02512873       0.58462411
O        9.65311900      12.40003100      10.22236800      -1.38082247      -2.09231274      -0.88844985
H       10.21801300      11.66527500      10.53440000       0.16492209       0.53634034       0.06385428
H        8.92040000      11.83439200       9.81562800       1.20534086       1.43901338       0.49628203
O       14.97941800      13.80990100      10.03043600       0.15414058       0.20685046      -0.26393204
H       15.91915600      13.97055700      10.01587600       0.55625322       0.76031033      -0.34401507
H       15.01329700      12.98197900      10.48566600      -0.70263246      -0.98958616       0.58559831
O       10.11651700      14.49961300      12.61885900      -0.47620989       0.57827441       0.10175712
H       10.84224300      13.83767800      12.73181300      -0.65345142       0.05015117       0.41149584
H        9.54816600      14.59738800      13.40268000       0.74122848      -0.28225969      -0.49989870
O       12.57568200      11.59757300      15.37717000      -1.45929121       1.00404934      -0.62076761
H       11.59337800      11.62331500      15.26801500       0.24738591       1.06286831       0.04825210
H       12.55337700      10.68810300      15.57863900       1.10747223      -2.06095583       0.59906847
O        9.74776600      12.27661900      15.42767100       1.18253446       0.94771245       2.50889386
H        9.59445800      12.30528800      14.49625700      -0.09954309       0.49142907      -1.57402017
H       10.18507800      13.10930800      15.78193900      -1.01004335      -1.46357004      -1.17023970
O       12.01525000      10.64451100      10.75186800       1.07578368      -2.83269039       1.19405243
H       12.10965300      10.60983600       9.79835400       0.17590718       0.04478785      -0.28985041
H       12.40417000       9.74053700      11.09465000      -1.24569762       2.72053809      -1.04625605
O        8.88794600      11.72595800      12.72774300      -0.92094109      -0.65257652       1.10047137
H        8.89024400      12.22754600      11.90397000       0.04274207       0.46673306      -0.15082385
H        7.96031200      11.59916900      13.01418800       0.76681147       0.17592662      -0.44002835
27
Properties=species:S:1:pos:R:3:REF_forces:R:3 REF_energy=-18719.523485250807 charge=0 spin=1 external_field="0.0 0.0 0.0" config_type=ORCA_DFT source_file=C_DFTprod_cutcluster_0022.out orca_step=0 pbc="F F F"
O       12.42945200      11.69412700      11.20018300       0.49884686      -0.14343656      -0.44116395
H       12.00000000      12.00000000      12.00000000      -0.44697351      -0.07099953       0.47033415
H       13.24252100      12.22113000      11.19746500      -0.11790658      -0.09294487      -0.02603602
O       12.62330400      14.73096600      12.21733000       1.85964522      -1.08369358      -1.42398312
H       13.33516400      14.25144800      11.66412100      -1.49012763       1.64435851       1.37830788
H       12.19937400      13.96393500      12.60531400      -0.65723788       0.14370365       0.38492878
O       10.98658700      12.76818900      13.46676600      -0.04817260      -0.30905213      -0.91994464
H       10.10471300      12.42053000      13.34331700      -0.35620014      -0.09604974      -0.21874377
H       11.04324800      12.93782900      14.39023200       0.32281833       0.23673974       1.25877919
O       15.48974500      13.59753800      13.83388000      -0.09285385       0.35680132      -0.67876234
H       15.11074600      14.35887900      13.33771800       0.05745393      -1.01782762       0.53849137
H       15.00866700      12.78966500      13.57575100      -0.08644651       0.62634777       0.33337106
O       14.56795000      10.69834700      14.59913000      -1.65337645       1.11257005       1.49285496
H       15.43100000      10.64784400      14.25796700       1.33018989      -0.61503615      -0.98402291
H       13.90302900      10.19782700      14.12314400       0.35238715      -0.50813235      -0.66917212
O       13.29902800       8.82754600      12.62887200       0.51193007      -0.30374465       0.60034415
H       14.22858600       8.56283600      12.52545600      -0.52858131       0.12776075      -0.17888020
H       13.08365900       9.36640800      11.86892700       0.00352483       0.34299470      -0.45245907
O       15.21320100      10.71602800       9.85936200       2.48940763      -0.09730279      -0.60055894
H       16.11668500      11.10147900       9.56618000      -2.78592809      -0.54986161       0.83386261
H       14.55395900      11.37627000      10.08093700       0.43100604       0.34956228      -0.32113019
O       12.14314400      11.07967600       8.04099400      -0.06651120       0.35800598       0.01757426
H       11.82105100      11.39304700       8.88696500       0.00796728      -0.39971314       0.85470294
H       11.95545100      11.86582600       7.52867900       0.07822597       0.08533451      -0.74025994
O       14.72244400      13.49991500      11.02053800       0.90331793      -0.18104831      -1.43088175
H       15.65016500      13.22299500      11.19401000      -0.81917693       0.35965026      -0.06500186
H       14.66659300      13.78092800      10.07518900       0.30277164      -0.27498645       0.98744952
27
Properties=species:S:1:pos:R:3:REF_forces:R:3 REF_energy=-18719.411887921662 charge=0 spin=1 external_field="0.0 0.0 0.0" config_type=ORCA_DFT source_file=C_DFTprod_cutcluster_0023.out orca_step=0 pbc="F F F"
O       11.21943400       9.13555100      11.34783300      -1.44332615       1.58541175      -1.90545380
H       10.78636500       8.49311800      10.78345000      -0.12709365      -0.22009827       0.15718733
H       11.68327400       8.72098800      12.02488600       1.47618248      -1.71190911       2.22552649
O       12.65207500      10.46834900       9.58305300      -0.03103666      -0.75511279       0.55054105
H       13.52014000      10.07155300       9.42793300      -0.49365812       0.25009225      -0.22016970
H       12.20444900       9.90626200      10.29821000       0.61128995       0.87504546      -1.10052942
O       13.22985100       8.26663900      13.29718400       0.20960694       1.88889533      -0.41940203
H       13.67760400       7.44104500      13.16454000       0.49886470      -0.52012259      -0.07925858
H       13.86702700       8.99259600      13.02956300      -0.80001933      -1.34749300       0.42804073
O       10.89503600      13.20359400       9.68300000       1.29710925      -2.16751798      -0.64667682
H       11.26208100      12.56442100       8.99791800      -0.79695159       1.21350957       0.96878501
H       11.32260500      12.79227000      10.48464900      -0.70769188       0.71802442      -0.70151959
O       14.87416000       9.78512400      11.47123300       1.08155031       0.89196188       0.49348889
H       14.49352700       9.26309400      10.79620100      -1.11804743      -1.22905081      -0.79139405
H       15.62036500      10.14151700      10.97288200       0.29745414       0.28644241       0.54846077
O       12.00000000      12.00000000      12.00000000      -0.77108747       1.71212734       0.58521192
H       11.57912300      11.15550700      12.04126000       0.11302689      -1.05496320      -0.15992139
H       12.93288200      12.00279500      11.82883900       0.36743366      -0.69098896      -0.00232032
O       10.58097600      14.63236900      12.18159600       0.99700935      -0.29256698       2.67204184
H       11.14017300      13.83304000      12.27273600      -0.36512018       0.11502895      -0.83892120
H       10.71172400      14.89605600      13.14146300      -0.67222700       0.25552468      -1.63548985
O       12.69742100      15.35464400       9.30030400       0.86402988      -0.03696758       0.39957229
H       13.09792600      14.88731200      10.06681000      -0.52582936       0.53056070      -0.72055732
H       11.87884600      14.87918000       9.13921700      -0.23873589      -0.21632986       0.26455615
O       14.06623900      13.90228200      11.42312900       0.84412943      -1.50704663      -0.19051074
H       14.33520100      13.03706200      11.01667600      -0.27797931       1.31739340       0.23201729
H       14.85838200      14.16702200      11.91506200      -0.28888300       0.11014962      -0.11330493
27
Properties=species:S:1:pos:R:3:REF_forces:R:3 REF_energy=-18720.07629210897 charge=0 spin=1 external_field="0.0 0.0 0.0" config_type=ORCA_DFT source_file=C_DFTprod_cutcluster_0024.out orca_step=0 pbc="F F F"
O       11.45578800      14.05472500       9.54835200      -0.18295797       0.25760790       0.49682484
H       11.83722800      13.34491700      10.10975000      -0.09207085       0.25620217      -0.59659430
H       11.42779700      13.79239000       8.62983000       0.15337758      -0.29614339      -0.03908036
O       12.51784600      12.09288000      11.11611900      -1.15217626      -0.71347450       1.72241597
H       12.00000000      12.00000000      12.00000000       0.59570886       0.50698451      -1.51826090
H       13.37933100      12.33509600      11.45785000       0.72046785       0.17131436      -0.04081272
O        9.72613400       9.05683400      11.48967200      -0.80720273       1.66439357      -0.12810486
H        9.32008600       9.95920700      11.46282500       0.09905942      -1.04254400      -0.00854326
H       10.24496800       9.09360500      10.68204200       0.50152677      -0.44347383      -0.09250871
O        9.99053700       9.74867300      14.15050800       1.11938374      -0.48685462       1.15613082
H        9.85293800       9.47706500      13.23718900       0.06676579      -0.63391942      -0.29077369
H       10.51491800       9.02589300      14.58870100      -0.94743158       0.99015221      -0.68502375
O       13.36745100      10.95895800       8.72155600      -1.48218951       1.11474660      -1.46913514
H       13.01906000      11.34442200       7.86284000       0.90889290      -0.85886833       1.32882042
H       12.72872100      11.35116400       9.35360100       0.69617658      -0.36178736       0.05371590
O       14.72293100      11.97430100      13.28092100      -0.37185390      -0.18121142       0.14151507
H       15.59767800      11.58505200      13.19616400       0.09312932       0.00869048      -0.06294601
H       14.20014100      11.29700600      13.73517500       0.15411307       0.14567399      -0.13458045
O       11.35564300      12.20880300      13.51166600      -1.49383049      -0.29448806       0.36905422
H       10.98280600      11.33382900      13.79129200       0.25087438       0.41422316       0.06387423
H       10.54647000      12.77530400      13.53234900       1.06539833      -0.31796074      -0.07873279
O       12.74199300       8.91850700      12.17343300       0.38519278       0.80566326      -0.31248630
H       12.02535400       9.04900700      12.79493400      -0.24109735      -0.01665365       0.06195428
H       12.86639700       9.80551600      11.77184000      -0.03228560      -0.65161673       0.10894572
O       13.46211300      15.01812200      14.20112200      -0.29289346      -1.27540040       0.08867206
H       13.33197600      14.03550400      14.23899700       0.28246496       1.30009703      -0.10616615
H       14.07937600      15.21281900      14.91287400       0.00345752      -0.06135280      -0.02817410
27
Properties=species:S:1:pos:R:3:REF_forces:R:3 REF_energy=-18719.468057302594 charge=0 spin=1 external_field="0.0 0.0 0.0" config_type=ORCA_DFT source_file=C_DFTprod_cutcluster_0025.out orca_step=0 pbc="F F F"
O        8.81147200      13.36775900      12.66003600       0.53151869      -1.68614002      -0.20377326
H        9.10146800      12.36911000      12.73737600      -0.39829769       2.55107682      -0.09113014
H        9.38131700      13.82408700      12.01309900      -0.23456011      -0.65982359       0.54067943
O       13.20333300       9.64308200      12.66442600       0.59150968       1.38633111       1.72706062
H       12.99465100      10.31492800      11.99746400      -0.06822094      -0.14885125       0.09783182
H       13.41917700      10.24895000      13.44954000      -0.40980271      -1.47401839      -1.66333325
O       11.24872000      13.95240900       9.64051000       1.43899482      -2.37616780      -0.11083764
H       10.70540100      13.13039900       9.66229500       0.52059706       0.23204830      -0.14929225
H       10.53996500      14.52378400       9.75086200      -1.76874798       2.51361374       0.32426689
O       12.00000000      12.00000000      12.00000000       0.29164087       2.46717164      -1.34271708
H       11.89127100      12.70495400      11.27821600       0.07541149      -1.24257373       1.20126551
H       12.25414800      12.54540600      12.78586100      -0.21876547      -0.74930514      -0.70854821
O       14.50215100      13.43278700      12.39815000      -0.06533832      -0.03716674      -0.89122017
H       15.12256200      14.15031800      12.54439000       0.16275161       0.10752560       0.03145051
H       14.43458600      13.38339700      11.41847600      -0.03449495      -0.01999449       0.96327827
O       11.80216900      12.40831900      14.60188200      -0.80067485      -0.77778890       3.00630502
H       10.99792000      12.08844600      15.12091200       1.00899994       0.72531628      -1.53343823
H       12.43271700      12.42149400      15.35935100      -0.08152701       0.18062212      -0.92943381
O        9.68145300      11.88071900      10.11685700       2.83403230       0.29937382      -1.56093603
H        8.86424600      11.66164400      10.48222900      -1.98097009      -1.04518869       0.84800311
H       10.17035300      11.14108300       9.70393700      -1.09086285       0.17277943       0.61289921
O        9.85834700      10.87417500      13.00917400       0.69849144      -0.51015586       0.35824433
H       10.64939100      11.21592200      12.47654300      -0.59676795      -0.52728974       0.94216874
H       10.21075400      10.43720300      13.82365600      -0.34538500       0.52021756      -1.36647911
O       12.30406700      15.25796700      14.19789800      -0.40283466      -1.72988287       0.36943618
H       13.23095100      14.99007400      14.07962000      -0.48134726       0.12804861      -0.06030770
H       11.83792900      14.37908200      14.37645000       0.82464993       1.70022216      -0.41144272
27
Properties=species:S:1:pos:R:3:REF_forces:R:3 REF_energy=-18719.489010394518 charge=0 spin=1 external_field="0.0 0.0 0.0" config_type=ORCA_DFT source_file=C_DFTprod_cutcluster_0026.out orca_step=0 pbc="F F F"
O       12.21746200      11.80637600      12.90243900      -0.05474949       1.36485052       0.84486173
H       12.07939300      10.88217700      12.99816000       0.10902100      -1.37474541       0.06793513
H       12.00000000      12.00000000      12.00000000      -0.09939839       0.41502761      -1.06308300
O        9.59992800      14.01604400      11.28825600       0.17584881      -1.44341974       1.03111637
H        9.19091200      13.18902900      10.98324200      -0.18912337       0.51670235      -0.12741715
H        9.93719200      13.69980400      12.17093500      -0.25439139       1.05164210      -0.76577136
O       12.83596200       9.12658600      12.81938000      -0.43892272      -0.54787945       0.69723597
H       12.02313200       8.58012400      12.87972100       0.98275222       0.28551079       0.18106178
H       13.34961600       9.03021600      13.65118800      -0.68069756      -0.16511559      -0.66291174
O       11.93899200      12.94436800      10.03998600       2.12331372      -0.08031464       0.47474524
H       11.04680700      12.78031300       9.77091000      -0.40497968      -0.16365073      -0.54251659
H       12.65225400      12.41299600       9.58131500      -1.46429247       0.27048558       0.36871360
O       14.13713400      14.36543200      11.67943300      -1.48632430       1.24277047      -1.16274550
H       14.09915000      15.35764700      11.50876400      -0.00931603      -2.03629560       0.34286795
H       13.30202500      13.99082900      11.25908700       1.26051042       0.77707706       0.65242390
O       13.83492100      11.10117900       9.22354100      -0.38711581       0.30654653       1.40314155
H       14.12917900      11.29874200       8.36747600       1.11433064       0.76193974      -1.97287918
H       13.28187900      10.35323100       9.05370900      -0.60212927      -1.02637058       0.30838050
O       15.29241500      10.04390900      11.56187200      -1.13013928       0.71806752       0.01678874
H       15.19075400      10.87388800      11.04161200       0.15894844      -0.89717819       0.54949924
H       14.38701000       9.90924400      11.93703900       1.07882407       0.12839494      -0.59936410
O       10.32103500      13.80464400      14.34372100       1.20193441       3.39377554       0.70361575
H       11.21425200      14.27960100      14.51763800      -2.18496024      -1.83344290      -0.61235156
H       10.45088900      12.90504000      14.14496500       1.13273059      -1.68931857      -0.20082436
O       15.20520700      13.36442900      14.08127600      -1.05208963      -1.15038260      -0.75362968
H       14.68747000      13.63505900      13.24578900       0.96258469      -0.87060228       1.60683572
H       15.02907100      12.39406500      14.27884200       0.13783063       2.04592546      -0.78572898
27
Properties=species:S:1:pos:R:3:REF_forces:R:3 REF_energy=-18719.54546846129 charge=0 spin=1 external_field="0.0 0.0 0.0" config_type=ORCA_DFT source_file=C_DFTprod_cutcluster_0027.out orca_step=0 pbc="F F F"
O       14.40528500      11.78273500      10.93359000      -1.19671589       0.99380632       0.58321320
H       14.74428600      12.64383700      10.62958300      -0.12503646      -0.59239291       0.26172922
H       13.56830600      12.02431800      11.46577000       1.73885880      -0.46158859      -0.93590538
O       13.23939600       9.10899800      13.69377900       3.11393814      -1.53369195      -0.53821503
H       12.49313900       9.61358600      13.79707900      -3.33935886       1.65139829       0.56348178
H       13.87365600       9.75443600      13.36474600       0.28791899      -0.15366431      -0.08817018
O       10.39993300      14.66228700      13.15698100      -0.84579736      -0.05025689       1.85995607
H       10.83912600      15.28096400      13.79969900      -0.68655072      -0.88752128      -0.98774648
H        9.64019000      14.25286700      13.67862000       1.44825398       0.77976844      -0.98373726
O        8.85029000      11.90390400      12.40117300      -0.97565716       0.07437024       0.52974911
H        7.86359800      11.85773400      12.38219600       1.36567908       0.21454546      -0.19235561
H        9.15689100      12.55706300      11.76047200      -0.39204621      -0.17599213      -0.41326239
O       10.80286300      10.31803500      10.12705800       0.65379615      -0.34133151       0.21442771
H       10.04351100      10.02270300       9.58914400       1.01934082      -0.36515010       0.49353995
H       11.51931100       9.64444400      10.28172000      -1.49198937       0.66067468      -0.82570552
O       14.66793200      13.69122400      14.02588000      -0.50182091       0.18298023       0.10693219
H       15.24178900      13.74321400      14.79481300       0.04974087      -0.02391723       0.04935547
H       13.78543400      13.92152100      14.35934400       0.44105350      -0.16450120      -0.16740053
O       10.07667500      13.52244000      10.16669200       1.45231390      -0.00156637      -1.79451835
H       10.84458100      13.66135100       9.50979500      -1.83051714      -0.34560854       1.71452495
H       10.24171100      14.12163300      10.89367300       0.38180828       0.56621702       0.28610030
O       12.00000000      12.00000000      12.00000000      -1.12897040       0.27763340       0.54118507
H       11.33513600      12.31281200      12.64831400       0.74448092      -0.04963001      -0.47434651
H       11.47293000      11.82668700      11.19779200       0.06690119      -0.14812574       0.12944631
O       10.39146400       9.58376500      13.30257700       0.63638958       0.39507009      -0.58360210
H       10.88088900       9.51603900      12.44612400      -0.78404845       0.24986291       1.02826404
H       10.15491100      10.52950400      13.37167700      -0.10196543      -0.75138835      -0.37693990
27
Properties=species:S:1:pos:R:3:REF_forces:R:3 REF_energy=-18719.990542475483 charge=0 spin=1 external_field="0.0 0.0 0.0" config_type=ORCA_DFT source_file=C_DFTprod_cutcluster_0028.out orca_step=0 pbc="F F F"
O       11.91893400      15.11105300      12.02534600      -2.13573740      -0.37943089      -0.95974938
H       10.98014900      15.48889700      11.95803200       2.01181818      -0.90236153       0.19066089
H       11.87350100      14.22718600      11.56148400       0.13676347       1.35670419       0.62012041
O       11.93950900      14.07087000      14.61570100       0.65055857      -0.21471973      -0.48586228
H       12.88309800      13.95645400      14.85716100      -0.79458813       0.41342895      -0.29936601
H       11.95405000      14.33866200      13.65863400       0.15639034      -0.03833962       1.06271502
O       12.80592200      10.60399600      14.34731400      -0.20001389      -0.87139346       0.18569881
H       13.02227700       9.77405700      13.88856700       0.13778893       0.38334246      -0.09414933
H       12.26510900      10.27975600      15.08561900       0.09111080       0.45301442      -0.12889517
O       12.00000000      12.00000000      12.00000000       0.01843605      -0.28164098       0.49041138
H       12.11179400      11.60972600      12.91249100      -0.56760788       0.76622695      -0.96795881
H       11.09086600      12.36042000      11.89444000       0.52701206      -0.53110675       0.42003864
O        9.85359900      13.34894200      10.51213800      -0.03262843      -0.12126342      -0.23198135
H       10.06871600      14.15359900      10.01117000      -0.20975622      -0.65907962      -0.10002615
H        9.55400700      12.65212900       9.89531000       0.27383356       0.80413402       0.29491311
O       14.52563100      13.22128300      11.19668500      -3.47848933      -0.21038763      -0.88389515
H       13.73146900      12.74579400      11.59590300       1.10210834       0.92682460      -0.82059797
H       15.21472300      12.92873800      11.72203900       2.32823601      -0.70617806       1.63828834
O       12.15229000       9.38633400      10.74020500      -0.00702708       0.71335479       0.14847932
H       12.05068000      10.30386000      11.07196700      -0.10383571      -0.25357394       0.16739122
H       12.74667400       9.54488000      10.00225300       0.11553963      -0.33167238      -0.20305433
O       14.65815900      12.98274000      14.80259600      -0.56924712       1.36732999      -0.15000629
H       13.97475900      12.32556000      14.81538300      -0.43137437      -0.92401706      -0.07979270
H       15.48077300      12.54242000      14.88783800       1.08439354      -0.68313527       0.19202568
O        9.39551400      11.06628100      12.76000200      -0.06105676       1.66071757      -1.05917009
H        9.30720400      10.90607700      13.68000800      -0.11563800      -0.69025198       1.01040875
H        9.49639600      10.28307800      12.24271200       0.07301100      -1.04652561       0.04335338
27
Properties=species:S:1:pos:R:3:REF_forces:R:3 REF_energy=-18719.209344464296 charge=0 spin=1 external_field="0.0 0.0 0.0" config_type=ORCA_DFT source_file=C_DFTprod_cutcluster_0029.out orca_step=0 pbc="F F F"
O        9.12442300      15.81257600      11.91877500       2.55561081      -1.76906669       0.79894990
H        8.71231100      16.02200700      11.12227400      -1.59764228       0.94489905      -1.97606833
H        9.92131300      15.32522600      11.55314500      -0.82938570       0.89854313       1.27522746
O       10.14421900      11.45196900      14.91066700       0.30943177      -1.77285614       0.04459121
H        9.90603100      12.31941000      15.13307700      -0.62199891       2.02271061       0.44131225
H       10.68216600      11.54493300      14.12927100       0.28823514      -0.00367981      -0.83128096
O       10.22170000      10.60016600      17.58924500      -0.34057766       2.85626808      -0.21784753
H       10.16648800      11.57682700      17.86157000       0.19960874      -2.21669481       0.03977358
H       10.12505000      10.76537700      16.62541400       0.28098612      -0.78653589       0.45808629
O       12.41756000      15.03890600      12.27968600      -0.18725377      -1.17601969      -0.15227344
H       12.10089400      14.18595500      12.69040000       0.53306511       1.22538277      -0.98286190
H       12.87180500      14.81967500      11.43222800      -0.48105169      -0.04437076       0.87714456
O        7.57826000      10.24633300      14.63125700       0.64445302      -0.25535155      -0.01590500
H        8.55235000      10.36639000      14.72888800      -1.08412229       0.22412858      -0.09600994
H        7.17405400      11.10485100      14.78426800       0.21079057      -0.00362680       0.02451429
O       12.79142500      13.99564800       9.17797100      -2.79729782      -0.61129530       2.18945191
H       13.10748800      13.37644600       8.54356500       0.78611115      -0.80291891      -0.99102911
H       11.98246700      13.46830200       9.57212600       2.36557141       1.62651953      -1.09393778
O       13.52439200      11.73594100       7.46559700       0.33419047      -1.64169613      -0.69535367
H       14.27555800      11.32178300       6.98504300      -0.29555702       0.90728977       0.41430400
H       12.95640100      10.94314900       7.50887800      -0.04775022       0.64634849       0.23333586
O       10.40909400      12.59708200       9.68093000       1.00358376      -2.20043381      -0.57825971
H        9.89738200      13.34460200       9.52500800      -1.62415622       2.29068674      -0.39237608
H       10.40020500      12.11999800       8.83407800       0.00940258      -0.00854059       0.45087691
O       11.07015800      12.26731500      12.20324300       0.50171092      -0.17215018      -1.15173624
H       12.00000000      12.00000000      12.00000000      -1.17752986       0.27206860       0.06028708
H       10.61345300      12.35429500      11.29791300       1.06157196      -0.44960833       1.86708440
27
Properties=species:S:1:pos:R:3:REF_forces:R:3 REF_energy=-18719.80370113838 charge=0 spin=1 external_field="0.0 0.0 0.0" config_type=ORCA_DFT source_file=C_DFTprod_cutcluster_0030.out orca_step=0 pbc="F F F"
O       14.46337800      14.76238300      14.04478200      -0.98040084       2.65403753      -0.88114849
H       14.01134900      14.03566800      14.45170400      -0.55153741      -1.11266791       0.26644426
H       13.76279400      15.38087400      13.67209000       1.36795981      -1.26793093       0.85327732
O       10.14328200      12.75918200       8.96176000      -0.41349744       0.10416578      -0.29552349
H       10.75199900      12.14627800       9.38557600      -0.17917145      -0.03541258       0.04053355
H        9.35524200      12.23883300       8.72907000       0.60258913       0.13863811       0.26847322
O        9.87827700      10.10898300      10.20753000       0.39284428      -0.28160709       0.35541046
H        9.96502500      10.38688200      11.14896300       0.45925835      -0.46567701      -1.12145219
H       10.67400800       9.62425800       9.89372000      -0.76246548       0.65063586       0.75533139
O       11.17641600      10.86032100      13.33133800       0.47583389       1.35795528      -0.26894728
H       10.25751400      10.70774000      13.52150100      -0.37920802      -0.35163129       0.27162195
H       11.64037700      10.02879700      13.20890700      -0.30416981      -0.87994408       0.16016061
O       13.75308200      12.12477900      14.26222700      -1.34749069      -0.43703394       0.23654614
H       12.81042100      11.81360400      14.16133800       1.58093664       0.33460817      -0.04273220
H       14.26187400      11.84586300      13.48165700      -0.31569920       0.00311674       0.06688962
O       11.83846800       8.32355200      12.66064200      -1.95805960      -1.99557071      -0.85001433
H       11.08547700       7.61150000      12.66778300       2.12088624       2.00621236       0.07101192
H       11.96060400       8.50053900      11.70623800       0.02066977      -0.26647280       0.64579287
O       15.11553400      11.50780600      11.72790600       2.12015944      -1.24182148       0.78242280
H       15.83228300      10.95427500      11.33757000      -1.13995575       0.61454230       0.24978454
H       14.34664100      11.55262200      11.18638700      -1.05841331       0.18002881      -1.00281418
O       12.57347500      12.46206900      11.38923100       0.20185054       0.51233358      -0.58778847
H       12.55513400      13.40118600      11.64345600       0.09986731      -0.56696223      -0.15957219
H       12.00000000      12.00000000      12.00000000      -0.42614619      -0.06926527       0.48723242
O       16.06749800      14.05405100      11.98644200      -1.12399120      -2.08578795       0.71636642
H       15.82121400      13.05192500      11.91924500       0.64259159       2.76218256       0.04215591
H       15.52216100      14.33027700      12.78112700       0.85475940      -0.26067183      -1.05946263
27
Properties=species:S:1:pos:R:3:REF_forces:R:3 REF_energy=-18719.641577585488 charge=0 spin=1 external_field="0.0 0.0 0.0" config_type=ORCA_DFT source_file=C_DFTprod_cutcluster_0031.out orca_step=0 pbc="F F F"
O       13.25589600      14.67050900      11.15808600       1.22796570      -0.84067675      -1.07357336
H       14.09605400      14.38249100      11.57302600      -0.70905153       0.28297034       0.13128522
H       13.48009200      14.41411100      10.22511800      -0.68276282       0.39560904       0.92555597
O       10.37675300      12.24560000       8.82000200       0.37897894      -0.79308686      -0.63296857
H       10.17766500      12.82246100       9.55381000      -0.49386324       0.57259557       0.23145695
H        9.65443800      12.25661700       8.18036000       0.06071866       0.27618386       0.40446659
O        9.52335200      13.96892300      11.18206700       0.93966346       2.39228029      -0.34700917
H        9.50546600      13.20320000      11.70418200      -0.17418115      -1.95138898       1.18615447
H       10.09648100      14.57721900      11.71229700      -0.68739636      -0.54455357      -0.88253688
O       14.08609900      11.23451500       9.91797500      -0.90291807       1.05848412       0.63335120
H       14.40985800      10.35163000       9.82432900       0.28351706      -0.82107039      -0.24996812
H       13.22389600      11.13583800      10.37825300       0.49966673      -0.09805401      -0.50603870
O       16.27217200      10.55015200      11.64757500      -0.91075330      -0.60666958       0.40072569
H       15.42562400      11.01706200      11.77174600       0.50844957       0.23329534      -0.35663564
H       15.93516000       9.63579600      11.63687600       0.58492498       0.27102350      -0.00475423
O       11.62128800      12.37549100      14.90571700       0.30258333      -2.48877251       1.02858260
H       11.42247100      11.62340000      15.58681200       0.16263782       2.69336019      -1.79504918
H       11.12697400      13.18360900      15.03361500      -0.42063127      -0.16972738       0.69980769
O       11.45224700       9.90019600      10.40649900       0.09293423      -0.56984459       0.19814079
H       11.22774600      10.50830000      11.12324300      -0.01688984       0.21343685      -0.28654962
H       11.03033200      10.23673700       9.60879700      -0.02657914       0.27732934       0.06695030
O       12.00000000      12.00000000      12.00000000      -0.16691351       2.24996288       2.35859642
H       11.98512700      12.94926800      11.65424100       0.35989816      -1.65743329       0.53093264
H       12.03646500      12.12234100      13.03313900      -0.15863564      -0.36623809      -2.54628820
O       12.83419800       7.49394300      11.64400900       0.30211256      -2.44657741      -1.32184424
H       12.65800400       8.39801000      11.59589600      -0.58326117       2.28826291       0.12105557
H       13.08990100       7.20239900      12.49938100       0.22978583       0.14929919       1.08615377
27
Properties=species:S:1:pos:R:3:REF_forces:R:3 REF_energy=-18720.515184158092 charge=0 spin=1 external_field="0.0 0.0 0.0" config_type=ORCA_DFT source_file=C_DFTprod_cutcluster_0032.out orca_step=0 pbc="F F F"
O       10.78146800       8.41322200      12.47065100       0.00925546       0.57462509      -0.07287350
H       10.64248500       9.38077100      12.46886400       0.02737161      -0.55786171      -0.08607838
H       11.62523000       8.29314200      12.02077300      -0.02116615       0.09351000       0.14566617
O       14.57733800      12.39120200       9.61923000       0.38617155      -0.68524548      -0.28199260
H       14.52994000      13.32790900       9.45404800      -0.15016318       0.32673566       0.08909331
H       14.17274500      12.19164300      10.46897200      -0.31475468       0.35424467       0.16538843
O       11.44610300      13.63238900       8.96500700       1.72249295      -0.21003678       0.39631964
H       10.59934800      13.71808000       9.37541100      -1.03190446       0.24338471       0.36977269
H       12.06070800      13.58244300       9.73550700      -0.70418536      -0.00145283      -0.87682980
O       12.94979300      14.94588400      11.64122000       1.18261539       0.67109886      -1.28775234
H       13.15365700      14.16150800      12.16945500       0.23515239      -0.34768367      -0.29235476
H       13.65022100      15.07440100      10.92999000      -1.37119194      -0.41095251       1.66548305
O       12.90319900      12.22994000      12.17902600       1.24787540       2.11644913      -0.45064536
H       13.31055100      11.51044400      12.59296600       0.85454708      -1.64232965       1.07609613
H       12.00000000      12.00000000      12.00000000      -1.69669414      -0.49069996      -0.56380532
O       10.46617800      11.71184800      11.35918700       0.33447422      -1.65564987      -0.50854871
H       10.03661500      12.56234500      11.18486300      -0.16889362       0.28778272      -0.36560961
H       10.54126200      11.18091500      10.52217200      -0.05058512       0.84194729       0.94465165
O       10.56333100      16.21598500      11.49074200      -0.66217060       0.68154396       0.07665935
H       11.37144400      15.80987500      11.80147500       0.99145751      -0.21108789      -0.02433822
H       10.66594700      17.16869400      11.59062300      -0.13546383      -0.21620922       0.00160478
O        9.27302400      14.02975100      10.91067700       0.24265708       1.22956312       0.84816524
H        9.64080400      14.88857000      11.31118300      -0.39567609      -0.93010667      -0.96350088
H        8.52070300      13.84490300      11.47432700      -0.41766237      -0.17465191      -0.03151715
O       11.54906300       9.48843800       9.65747900      -0.48837393      -0.95112024       0.67781108
H       12.05009400       9.39504000       8.85729100       0.51695226       0.34988737      -0.73731418
H       11.28360500       8.56437700       9.83327400      -0.14213759       0.71431597       0.08644929
27
Properties=species:S:1:pos:R:3:REF_forces:R:3 REF_energy=-18719.56776938644 charge=0 spin=1 external_field="0.0 0.0 0.0" config_type=ORCA_DFT source_file=C_DFTprod_cutcluster_0033.out orca_step=0 pbc="F F F"
O       14.40016400      11.89338700       7.97152300       0.31924892       0.94530235       0.64544855
H       14.83658300      12.68753800       8.35333200      -0.55054697      -0.96534847      -0.40771955
H       13.87911900      11.44247800       8.68617400       0.70641044       0.17479204      -0.76141724
O       11.27286100      11.66134400      12.56665100       0.54088718       0.10243620      -0.27567591
H       12.00000000      12.00000000      12.00000000      -0.61187755      -0.49503052       0.01636271
H       11.17325600      12.38223200      13.18851600      -0.22474482       0.37516090       0.51331533
O       14.85508800      10.93697600      12.25066400       1.56141538      -1.13367465       0.00655852
H       15.27643200      11.78501500      12.27351800       0.29278907       1.07290755       0.34686894
H       15.66638000      10.35999100      12.33496900      -1.49299997       0.37395366      -0.29361013
O       11.11630400      11.53802600       9.11243600      -0.54498732      -0.07851543       2.76096936
H       10.44664800      11.19025900       9.79918300       0.66895013       0.59185179      -1.53059886
H       11.75104800      12.01403900       9.74704600      -1.43365741      -1.04072335      -1.74303447
O       12.66184400       9.27076700      13.20057200       0.61114767      -0.39683870      -0.14064758
H       12.20687000      10.02609500      13.55414800      -0.77861756       0.43179387       0.30048084
H       13.33087200       9.73397900      12.68373100       0.05806117      -0.37633204      -0.14147003
O       13.31888500       9.90374200       9.34628000      -0.72597402      -0.09774003       0.44069467
H       12.40148900      10.26131800       9.42915200       0.32812971      -0.07224291      -0.14595048
H       13.22400900       9.32930300       8.58691000       0.25268598      -0.27217011      -0.28361440
O        9.11190800      10.80954200      11.19886800       0.29371889       0.53941435      -0.00257964
H        9.79473100      11.07022100      11.86525800      -0.40910805      -0.45299658      -0.39547395
H        8.79055000       9.92924100      11.39195300       0.14943721      -0.15645071       0.19934453
O       11.89263600      13.83525000      14.04736800       0.96846095      -0.74251917      -0.76506929
H       12.67200900      14.16110000      13.56346200      -0.57991365       0.02079205       0.46293390
H       11.51102500      14.55341200      14.51948200      -0.34587027       1.01983288       0.51236233
O       13.04478000      12.30650800      10.56208300       2.81466310       0.49517332       1.70530286
H       13.90636700      11.89724700      10.94657300      -1.95765537       0.44389637      -1.10750467
H       13.23942400      13.21654700      10.28609000       0.08994717      -0.30672461       0.08372346
27
Properties=species:S:1:pos:R:3:REF_forces:R:3 REF_energy=-18720.210986934413 charge=0 spin=1 external_field="0.0 0.0 0.0" config_type=ORCA_DFT source_file=C_DFTprod_cutcluster_0034.out orca_step=0 pbc="F F F"
O       14.24308000      14.13172900      11.93974000       0.07002724      -0.25166464       0.77725149
H       14.28436600      14.30269400      12.90036800      -0.05115776       0.01607701      -0.76249490
H       13.72606600      14.82805400      11.52100900      -0.20073565       0.21418463      -0.19149439
O       13.25026000      12.53627400       8.72341800       0.53523152      -0.38668952       0.22997866
H       13.98039800      12.04182400       9.18851400      -0.86391109       0.58790536      -0.49337247
H       12.63049200      11.88603000       8.37760500       0.06988470      -0.07458956       0.08476270
O       12.13016800      14.84185900       9.73875100       1.76776432       0.13480387      -0.09233295
H       12.49332900      13.96496400       9.47194900      -0.37446048       0.23453013      -0.12300503
H       11.24651300      14.74320500      10.03073700      -1.26590058      -0.35774800       0.35593414
O       13.32578200       9.61845300      10.98200900       1.38223879       1.09661662      -1.21430419
H       12.69616300      10.01100500      11.57230600      -0.55671664       0.25796009       0.45588311
H       13.81682600      10.44890400      10.66274200      -0.92129760      -1.75899758       0.85435965
O        9.32758800      13.81697600      13.58954000       1.54345988       3.80414035      -1.00269925
H       10.21365500      14.33323400      13.51440400      -2.36900733      -1.69145290       0.29998189
H        9.53648800      12.95181000      13.83248900       0.86516003      -2.18308005       0.67145290
O       14.96409400      11.81296200      10.59013300       0.23197693       1.39858047       0.57822659
H       15.82244900      11.40603300      10.73192400       0.10828752       0.15902799       0.09696978
H       14.92591800      12.70987900      11.05921900       0.11823517      -1.46167555      -0.59437415
O       11.83565300      10.50908100      14.26986900       1.28105718      -0.87110421      -1.04614848
H       12.04790200      11.01908000      13.44096000      -0.40983454      -0.30244804       0.94026679
H       12.42485000       9.71186200      14.17915900      -0.94309279       1.12627692       0.31992645
O       12.00000000      12.00000000      12.00000000       0.33827909      -0.35276731       1.10710646
H       12.57634700      12.75355500      11.84514800      -0.18655628       0.12222419      -0.54933531
H       11.28394400      11.87522500      11.37666600      -0.17977926       0.55749008      -0.82277678
O        9.86540100      11.59757600      10.03193300      -1.59431476      -0.46942958       1.36545663
H        9.27151200      11.04631500      10.64908000       1.22464034       1.30011960      -1.50072068
H        9.35025300      12.41525700       9.85031900       0.38052217      -0.84829035       0.25550134
27
Properties=species:S:1:pos:R:3:REF_forces:R:3 REF_energy=-18720.38297539824 charge=0 spin=1 external_field="0.0 0.0 0.0" config_type=ORCA_DFT source_file=C_DFTprod_cutcluster_0035.out orca_step=0 pbc="F F F"
O       14.63080000      10.00107800      13.92270300      -0.16243768       0.56191202       0.61091910
H       14.36401200       9.74518200      13.01947100       0.21773924      -0.20342169       0.28978623
H       14.24864700      10.89320100      13.98627100       0.32615181      -0.35687742       0.33569729
O       14.02987500      13.83939200      12.55418100      -0.89793296       1.60119529      -0.13312407
H       14.19109500      13.72728100      13.50797200       0.22930946      -0.44877529       0.13703189
H       13.67623700      14.76256200      12.50740800       0.54047256      -1.07094322      -0.20015397
O       12.00000000      12.00000000      12.00000000       0.33857333       0.15252135      -0.03939938
H       11.42156400      12.42831500      11.37284500      -0.41346690       0.02084723      -0.48534718
H       12.59360000      12.72854900      12.26864400       0.51754583      -0.11740481       0.10348712
O       10.13578600      10.42711300      16.44351500      -0.33956562       0.95039226       2.27324957
H       10.23061300      10.39899300      15.50996500       0.37281996      -0.87892556      -1.68520948
H       10.46547600       9.67141500      16.94852200       0.04951755       0.15780954      -0.94383152
O       10.09897000      10.97500500      13.55418900      -4.40540068      -0.03774699       2.57360823
H        9.44014900      11.72871400      13.54274800       1.03941676      -1.38147471      -0.01072022
H       10.77384700      11.29689300      13.04133200       3.13361536       1.19907292      -2.07016845
O        9.74018200      14.21288600      13.18942100      -1.64862603      -0.25395060       1.56924815
H       10.60324800      14.06215000      13.55080600       1.15256886      -0.18167005       0.13645720
H        9.20871400      14.10094800      14.03189500       0.53401272       0.35391644      -1.57647341
O       13.97820600       9.78610600      11.50649900       0.46980553       1.82233887      -2.07958146
H       13.23553300      10.44563600      11.49961200       0.60672074      -0.64845520       0.03575644
H       14.73107300      10.30650700      11.07544900      -1.48392783      -1.15461587       0.88586548
O       11.63456000      13.11929900      15.97020600      -0.01257902      -0.33886926      -0.35702670
H       11.15338700      12.27828800      16.09745000       0.12618255       0.10548425       0.13995883
H       11.22439600      13.75256800      16.55633400      -0.14008831       0.12046668       0.29970107
O       14.26892600      12.74843500      14.95805700       0.47231991       0.18799450       1.45675908
H       13.53645600      12.92366900      15.57195700      -0.71460455      -0.02098313      -0.43374781
H       14.98319700      12.65085300      15.61602700       0.09185750      -0.13983748      -0.83274202
27
Properties=species:S:1:pos:R:3:REF_forces:R:3 REF_energy=-18719.547811361896 charge=0 spin=1 external_field="0.0 0.0 0.0" config_type=ORCA_DFT source_file=C_DFTprod_cutcluster_0036.out orca_step=0 pbc="F F F"
O       14.85117800      13.23486200       9.06433200      -1.57091314       0.66020237       0.44571717
H       13.88334700      13.42528300       9.11377000       0.75949452      -0.78573649      -0.46947622
H       15.11706200      13.96368900       9.63135000       0.81417639       0.06007229       0.07436274
O       14.82268200      11.54802600      13.21587200       2.35703967       0.95708124      -2.72913015
H       15.53256600      11.55505000      12.43263200      -2.67294882      -0.45684084       2.63033289
H       14.27582200      10.76229000      13.20485100       0.01731499      -0.51286174      -0.20853350
O       12.15124700      12.89091000      12.25585100       0.24314364       1.58674435       0.36323011
H       12.00000000      12.00000000      12.00000000      -0.03994950      -1.27093742      -0.41312108
H       12.95077400      12.89351400      12.80795300      -0.16255847      -0.31045821      -0.10014504
O       12.77853400       9.76163100      15.09964200      -0.83525424       0.10972384      -0.51725036
H       12.42919800       8.92339300      14.76897600       0.25243000      -0.02296669       0.16855706
H       11.97815000      10.32780300      15.07911100       0.67163904       0.16711961       0.23943019
O       11.24244200      12.64875800      15.12064800      -1.09555187      -0.57216393      -1.05200010
H       11.97084500      13.25634900      15.21541900       0.80206412       0.45938505       0.14304889
H       10.93233400      12.80496000      14.19823500       0.40450141      -0.13528750       0.97257600
O       13.12103300       9.58585100      10.43970300       0.28021787       1.06474604      -0.40454902
H       14.02516500       9.68719200      10.12841500       0.04150558       0.42173639      -0.32121812
H       13.18740500       8.76057100      10.87758000      -0.33012869      -1.42024757       0.78614699
O       15.58059600      12.31418700      15.69748200      -0.75610288      -0.38883182      -1.16395366
H       15.26027600      11.56159000      16.23063800       0.10167408       0.58063258      -0.53293404
H       15.18454500      12.18073400      14.76984300       0.83732244      -0.21186005       2.03726151
O       12.40659300      15.99211000      12.25830600       2.26116235      -0.90338622      -2.07676143
H       11.90373300      15.20261700      11.99172000      -0.11413781       0.17070563       0.13994793
H       13.21634300      15.90298600      11.61443700      -2.22579358       0.50986697       1.92693634
O       13.51792900      14.47726500      14.63215900      -0.29244280      -0.47503628       0.67770104
H       14.44461400      14.25298800      14.46077100      -0.54887740       0.29246578      -0.27525302
H       13.01162200      14.81119600      13.88101100       0.80097310       0.42613266      -0.34092327
27
Properties=species:S:1:pos:R:3:REF_forces:R:3 REF_energy=-18719.522413647403 charge=0 spin=1 external_field="0.0 0.0 0.0" config_type=ORCA_DFT source_file=C_DFTprod_cutcluster_0037.out orca_step=0 pbc="F F F"
O       11.51521000       9.05664200      10.39875000      -0.60707381       0.77384246      -0.76897505
H       11.13893000       9.12848000       9.49023000       0.43090057      -0.11047620       0.91342380
H       11.47070100       9.98405000      10.71015300       0.20939796      -0.63194255      -0.30203872
O       11.17864100      11.85666900       8.41794900      -0.03252276       0.50285825       0.15431351
H       11.39869500      12.01850000       9.37016100      -0.30452889       0.41697640      -1.28876288
H       10.95397500      12.70348500       7.96447700       0.31413396      -0.89245923       1.13560056
O       11.33714200      14.79268900       9.84619000       0.62768002       1.53093063       0.08117045
H       11.64451900      15.71128100       9.61126100      -0.55405082      -1.38709915       0.04118532
H       11.52010100      14.83504100      10.81025800      -0.22834694      -0.05170941      -0.34235306
O       11.87996200       9.74311400      13.55956500       0.14442803       1.38208365      -0.11614193
H       11.17457100      10.13103200      12.98747400       1.00676668      -0.48033836       0.62518317
H       12.53910100      10.46287000      13.75039600      -1.19858246      -1.00574215      -0.39034162
O       14.31246500      14.09509300      13.50802600       2.10433476      -0.64690210      -1.41856210
H       14.30063100      13.12065100      13.65779800       0.05630989       1.10251360      -0.20271103
H       15.14017100      14.24154900      12.91493300      -2.10536104      -0.41774932       1.53980685
O       12.02024900      15.57017100      12.41794000      -0.73000160      -0.96721185       0.71238209
H       12.89081400      15.20844200      12.60726500       0.64799266       0.07495363       0.02019638
H       11.48878700      14.91518400      12.92560900       0.02078526       0.74863274      -0.52337534
O       10.97060600      12.96900200      13.82256100      -0.27325944      -0.19982091       1.47183429
H       10.37071500      12.28428900      14.19280000       0.37437106       0.46998859      -0.56633421
H       11.18529000      13.47145400      14.64296900       0.02084501      -0.35509071      -0.86803380
O       12.28101700      11.88055400      11.10095200       1.82319680      -0.78758948      -1.45332970
H       12.00000000      12.00000000      12.00000000       0.34071567       0.15781602       0.87045707
H       13.21945500      11.50174100      10.99674700      -2.20181429       0.85756967       0.68084036
O       14.02463600      13.77268100       9.31079400       3.50027522      -0.16320125       0.66850868
H       13.64390800      13.80082500       8.47386000      -1.12722313       0.01078650      -2.12827765
H       13.33172000      13.77265000       9.91372200      -2.25936823       0.06838055       1.45433459
27
Properties=species:S:1:pos:R:3:REF_forces:R:3 REF_energy=-18719.828329727017 charge=0 spin=1 external_field="0.0 0.0 0.0" config_type=ORCA_DFT source_file=C_DFTprod_cutcluster_0038.out orca_step=0 pbc="F F F"
O        7.95236200      10.32585100      13.66615100      -0.97355451       1.03339966       0.83056100
H        7.40909500       9.68852800      14.15784000       0.14517612       0.20114667      -0.24202567
H        7.77374100      11.19322500      14.11896200       0.20523169      -1.16131200      -0.72706931
O       10.29843600      14.27208600      13.76686800       0.42208739      -1.29542369      -0.47053855
H       11.20644700      14.62434000      13.72669500      -0.26434516       0.13936661       0.01360772
H       10.45212800      13.37372500      13.37164500      -0.20436934       1.15615314       0.58135028
O       14.18417300      13.90197800      16.76578100       0.87820221      -0.99681117       0.60679458
H       13.27253200      13.76331800      16.58106200      -1.44909411       0.43830787      -0.65154438
H       14.34884800      13.05684200      17.22407500       0.59141646       0.52162828      -0.07084218
O       12.85680300      15.54275800      13.41104200      -3.50985422       2.95748974      -0.08783331
H       13.67918200      15.20096100      13.54366600       3.65016062      -1.57960501       0.61146936
H       12.89893700      16.48175400      13.72950200      -0.07110443      -1.38043917      -0.47625797
O       12.15048100      12.05232900      12.96945800      -0.98755694      -1.39888113      -0.92147028
H       12.00000000      12.00000000      12.00000000       0.46162124       0.37955450       0.69184190
H       11.65378600      11.22859400      13.23852900       0.38190789       0.73106789       0.29348008
O       10.46699100      10.04732400      14.33947100       1.88432596       1.38334169       1.65474566
H        9.57861000      10.01949000      14.01549300      -1.20732318      -0.10300992      -0.54080336
H       10.43487700      10.73857500      15.07529200       0.09714719      -1.22519287      -1.00336131
O       10.50898100      11.54513400      16.76000200      -0.19734000       1.11880714       0.44860915
H       10.00283600      12.35670600      16.99338600       0.41929975      -0.81187977      -0.34872646
H       11.41579500      11.76759300      17.02109900      -0.23977719      -0.27210095      -0.12419499
O       14.58190000      11.17591700      14.53685000       0.59089694      -0.97803784       0.37180227
H       14.71033100      12.03268900      14.92000100      -0.02564496       0.79915199       0.11876610
H       13.84872300      11.23825300      13.93415700      -0.55213653       0.37003942      -0.46719786
O       11.88949400       7.67097400      15.44652000      -1.34578816      -1.22590820       1.07199707
H       11.15525800       7.15613900      15.89684100       1.44442303       0.90125786      -0.83892516
H       11.46739700       8.51330700      15.25009900      -0.14400786       0.29788922      -0.32423428
27
Properties=species:S:1:pos:R:3:REF_forces:R:3 REF_energy=-18719.210308664413 charge=0 spin=1 external_field="0.0 0.0 0.0" config_type=ORCA_DFT source_file=C_DFTprod_cutcluster_0039.out orca_step=0 pbc="F F F"
O       11.91001600      16.90370800      11.52450900      -0.56306804      -1.05464469      -0.27743182
H       11.90741400      16.07041000      11.00126100       0.15651381       0.60183426       0.06046932
H       11.15749700      16.72720700      12.10802600       0.30426314       0.28695313       0.12238318
O       10.03559700      14.31387200      14.35527900       0.49928025       0.91879206       1.05377746
H        9.64521400      14.62541400      13.56161600      -0.56136596       0.81615429      -1.17071371
H        9.96322100      13.38608400      14.23472300       0.18027147      -1.36500875       0.18139330
O        8.17699300      12.23123900      13.26924800      -2.38491058      -0.25736518      -0.86350383
H        7.32834100      11.80572000      13.58543700       1.55803829       0.53631473      -0.18020293
H        7.86366200      12.60790200      12.40959000       0.67175217      -0.30332695       0.86858530
O       11.08302300      14.27976600       9.78027300       0.64642125      -1.64192635       0.28009842
H       11.65042500      13.46981600       9.89067900      -0.18887042       1.13490616      -0.40189235
H       10.32489200      13.90379400      10.25709100      -0.07193608       0.77472281      -0.29148115
O       12.34097600      12.34940600      11.17460700       0.28118101      -0.28948407      -0.05501508
H       12.00000000      12.00000000      12.00000000      -0.44677374      -0.56141754       0.36678713
H       12.82241800      13.10637000      11.49784700       0.45619066       0.55133820      -0.03453007
O        8.91220100      14.99457600      10.85645200      -3.05740282       3.53596095       0.63261962
H        7.94930900      15.19371600      11.15497100       2.17170765      -0.96777559      -0.59597842
H        9.10975100      15.95847300      10.57058700       0.29061305      -2.39259653       0.35120603
O       11.67491700       7.13868200      11.56768000       0.37011244      -0.12768480      -1.18012076
H       11.03071900       7.60472000      12.10876900      -0.24452268       0.14986843      -0.54067552
H       11.54609200       7.31318700      10.59622400      -0.15928834       0.04094030       1.82224184
O       11.87813200       8.60263500      14.56614000      -0.55304911       1.71831712       1.94085409
H       12.26685900       9.44756800      14.92055200      -0.39472571      -1.44917238      -0.68617154
H       12.38889700       8.36953400      13.81886500       1.04274778      -0.30744848      -1.30476466
O       10.86566900      11.55321500      13.50975200       1.23297781      -0.77818608       1.35264817
H       10.68679400      11.01880800      14.30898600       0.47205314       0.17482171      -0.60485402
H        9.99253000      11.72603700      13.22023000      -1.70821037       0.25511331      -0.84572794
27
Properties=species:S:1:pos:R:3:REF_forces:R:3 REF_energy=-18719.4900430861 charge=0 spin=1 external_field="0.0 0.0 0.0" config_type=ORCA_DFT source_file=C_DFTprod_cutcluster_0040.out orca_step=0 pbc="F F F"
O       10.61628900      13.75594600      13.99391600      -0.15873668      -1.03089495       0.48753210
H       10.79928300      14.51879800      14.51699000       0.30482395       0.68669265       1.07841835
H       10.56034000      14.15635100      13.13975100      -0.07155453       0.34402062      -1.59049240
O       10.77378200      15.02528900      11.30625200      -1.33537452      -1.04311206      -0.56881892
H       10.55776200      14.21001600      10.77298400       0.58971289       0.92832489       0.75671922
H        9.86711300      15.38147300      11.38115600       0.63949794       0.22443578       0.03162025
O        9.08307900      12.83246700      10.35965100       1.85930784      -0.92074178       0.33202339
H        8.27719700      13.27618200      10.22433100      -1.67651144       0.83991200      -0.40489062
H        9.39186400      12.52503900       9.50095500      -0.18230269       0.03038967      -0.04473200
O       10.68464000       7.48801400      11.79328300      -0.79044999       0.68816065      -0.42957254
H       10.26626800       8.32648900      11.47894700       0.32977882      -0.88795224       0.47087948
H       11.60449400       7.72460600      11.90539800       0.42150782       0.22146435       0.00648005
O        8.95960500       9.78686500      11.11049100      -0.00435735       0.19779981      -0.07998723
H        8.66256300      10.52183900      11.68859100       0.21570112      -0.48987556      -1.08391465
H        8.91482300      10.01020600      10.15903500      -0.21095934       0.25260751       1.15158043
O        8.98129100      11.14855200      15.45384300       1.08514579       1.91761013      -0.91479086
H        9.55078200      10.42083400      15.15136600      -0.16269515       0.57658679       0.06794480
H        9.40632400      12.02361300      15.11832200      -0.85532926      -2.40540459       0.71403633
O       12.92585600       9.20997000      12.75260600       0.08113317      -0.22461529       0.27672461
H       13.08612400      10.17160800      12.61724300      -0.71576586      -0.89571867       0.66556229
H       12.52696200       8.96539200      13.61927500       0.55430695       1.05729298      -0.97365241
O       12.00000000      12.00000000      12.00000000       1.76931922       0.21513851       0.35723054
H       12.01318100      12.57484300      12.77169400       0.17052956       0.15747484       0.21830364
H       11.09109500      11.95237700      11.81030800      -1.91082591      -0.44182462      -0.51716824
O       13.47624700      13.10954400       7.98914600      -0.14382644      -0.50617733      -0.82074232
H       12.56261500      13.04355900       8.28421000       0.08959786       0.04509042       0.12409641
H       13.48818500      12.57395100       7.16888400       0.10832614       0.46331545       0.68961018
27
Properties=species:S:1:pos:R:3:REF_forces:R:3 REF_energy=-18719.06378944886 charge=0 spin=1 external_field="0.0 0.0 0.0" config_type=ORCA_DFT source_file=C_DFTprod_cutcluster_0041.out orca_step=0 pbc="F F F"
O       14.07148700      13.28865900      16.77889700       1.50889175      -0.23775090      -1.34476774
H       13.13138100      13.14489500      16.78134200      -0.54104761      -0.26659539       0.16083887
H       14.41681700      13.00267800      15.88488800      -0.47937116       0.64526343       1.45049917
O       10.54916200      11.94919800      15.05240400      -0.60362421      -1.52670816      -0.11432360
H       10.63107100      10.95756000      15.19877500      -0.36889013       1.91626035      -0.15689423
H        9.66794700      12.23472000      15.37151100       0.46102588      -0.48134839      -0.48092874
O       11.53091000      12.49598300      17.45587100      -0.50382601      -0.57584143       0.84184753
H       11.19804600      11.63658000      17.76217800       0.44576443       0.39718070       0.20730945
H       11.02774800      12.61471800      16.65081700       0.15842203       0.30050552      -0.35481144
O       12.06183300      12.78703600      12.60301000      -1.14342098      -2.00705342       0.02784947
H       12.00000000      12.00000000      12.00000000       0.23312153       1.19257426       0.65091960
H       11.40862700      12.52885500      13.31493000       0.92118777       0.67108127      -0.71499407
O        9.57776200      16.31447900      12.23624900      -0.26591744       1.03348081       1.27041127
H       10.02577400      17.17080900      12.38969500      -0.31005033      -0.78610919      -0.18168630
H        9.94471400      15.94073100      11.45667500       0.60330832      -0.34119606      -1.03701649
O       13.19144700      15.18361100      13.23259700       0.01316965      -1.19025857      -1.45888981
H       13.92626300      15.73595900      13.00546100       0.79559410       0.98448108       0.34868136
H       13.25837700      14.56406200      12.45902900      -0.79226071       0.36190702       1.17841426
O       10.90645500      16.18440700      15.05408500      -0.19504827      -0.00917318       0.01084034
H       11.83252500      16.38046800      14.94407900       0.67838737       0.19236959       0.36545653
H       10.77509800      15.68564300      14.24748900      -0.53216173      -0.22044183      -0.40860895
O        8.08785200       9.05523800      13.00634300      -1.08375148      -0.89427983      -1.43526985
H        7.71836800       9.63134000      13.65107200       0.16043176       0.65800824       0.87927873
H        9.01705500       8.92664700      13.07311400       0.91314242       0.22513460       0.54097897
O       15.02102100      12.81156200      14.07871800       1.17372483      -3.62707792       0.43245465
H       14.15920900      13.13816000      13.91598700      -1.68163838       0.77282189      -0.48535191
H       14.88899100      11.78831300      14.11227700       0.43483667       2.81276542      -0.19223703
27
Properties=species:S:1:pos:R:3:REF_forces:R:3 REF_energy=-18720.29584106755 charge=0 spin=1 external_field="0.0 0.0 0.0" config_type=ORCA_DFT source_file=C_DFTprod_cutcluster_0042.out orca_step=0 pbc="F F F"
O       12.00000000      12.00000000      12.00000000      -0.82241718      -0.35239975       0.32851687
H       11.87043600      12.76523500      11.42893300       0.07781156       0.10406618      -0.17414299
H       12.92593300      11.77666200      12.04626300       0.63128655      -0.07665668      -0.33709741
O       10.90968800      14.32701100      10.97690400      -0.89661830      -2.02931526      -2.03371139
H       11.54884600      14.94182100      10.71777900       1.36991009       1.63140776      -0.25611635
H       10.66734900      14.41510300      11.86386300      -0.63976292       0.53565987       2.26903399
O       10.60620900      11.76615100      15.18409400       0.09433748      -0.93779010      -0.00900812
H       11.10752000      12.44033100      14.72618100       0.16483863       0.51299832      -0.22388083
H        9.88111500      12.21491000      15.61012200      -0.33789728       0.19446900       0.13023230
O       12.13500900      13.91504100      14.51721400      -1.14490482       0.78516354       0.37172760
H       11.59582700      14.72678900      14.45448000       0.26691925      -0.57705185       0.17309886
H       12.96016300      14.14423900      14.12408300       1.02018820       0.13076333      -0.56195017
O       14.80644900      11.23770600      12.20867800       0.46992005      -1.14193154       0.30816674
H       15.29251700      10.37061500      12.22887200      -0.76115031       1.31702939      -0.02851174
H       14.42059300      11.31363200      13.10979000       0.37196687      -0.19520804      -0.10505631
O        8.47823800      13.87076100      13.11415600      -0.22970443       1.69855886       0.10072513
H        7.92923500      14.32754700      12.45579500       0.26014768      -0.24724378       0.38386573
H        8.59985700      12.99082600      12.77246100       0.06380532      -1.23118482      -0.42991157
O       12.68987600       8.66017600      10.57466800       1.04681897       0.76642164      -0.26266932
H       12.20486100       9.20704000      11.21986300       0.56976339      -0.02725642      -0.52621908
H       13.48884900       9.17568200      10.26217200      -1.63535713      -0.63695419       0.80430469
O       13.58568800      11.12752600      14.71062800       0.19178570       0.51841496       0.32324492
H       13.19610900      11.82919300      15.24680800       0.27999259       0.26507201       0.04539154
H       12.83518400      10.54578600      14.66707300      -0.57328930      -0.78151823      -0.25324072
O        9.16011100      11.36681100      12.29520300       0.01321095       0.18659124       1.44456321
H       10.03323800      11.52525800      12.69467800      -0.07973336      -0.24393492       0.07444152
H        9.36883800      11.29791700      11.38520900       0.22813174      -0.16817047      -1.55579721
27
Properties=species:S:1:pos:R:3:REF_forces:R:3 REF_energy=-18720.360881739623 charge=0 spin=1 external_field="0.0 0.0 0.0" config_type=ORCA_DFT source_file=C_DFTprod_cutcluster_0043.out orca_step=0 pbc="F F F"
O       12.53413800       9.70277200      13.71832900      -0.38038826      -1.33268396      -0.32454889
H       12.66064000      10.24557300      14.48548200       0.33919322       0.73830493       0.26493595
H       12.67405900      10.18813300      12.90156400       0.16948323       0.27087376       0.25287012
O        8.83841700      11.57436100      12.92987400      -0.18908624      -1.10840168      -1.48892714
H        9.05679800      11.92575700      13.77090800       0.53499385       0.59498072       1.69141073
H        8.70710700      12.31498600      12.34793800      -0.13314515       0.45163462      -0.24846258
O       10.19189900      12.02601500      15.43287100      -0.58439169       1.94940018       1.16136528
H       10.44974300      12.76079600      16.06633900      -0.73371103      -1.42741189      -1.11267809
H       11.04792200      11.64695000      15.24253600       0.59969340      -0.40508736      -0.10706681
O       12.74234600       9.61119300      10.89222900      -0.31391794      -0.44178374      -0.46148451
H       13.37846800       8.89184600      10.87023700       0.25519785       0.06981481       0.09769416
H       11.89247400       9.14929700      10.76257100      -0.05921452       0.27356324       0.13990993
O       12.00000000      12.00000000      12.00000000       0.01287074       0.05022239      -0.38110910
H       12.43011200      11.55606000      11.23673900      -0.74032756      -0.11723085       0.74591241
H       11.17438200      11.53637100      12.25986100       0.60691486       0.18330553      -0.46063178
O       12.75203100      11.60148600      15.85599900       0.82199496       0.92168137      -0.37875582
H       13.12475400      12.49551400      15.66150000      -0.33644337      -0.60109018       0.02555780
H       12.77009700      11.51963100      16.80668600       0.06334864      -0.13099756       0.43211902
O       12.58247300      14.63186300      15.10371200       0.95284412      -0.09043928       0.52507690
H       12.59340700      14.77798400      14.15361100       0.24209088       0.21590244      -0.73279078
H       11.68184000      14.37008000      15.18810900      -1.18631886      -0.29251463       0.37805349
O        9.93732600       8.53824400      10.55056900      -1.35721182       0.46009766       1.99582664
H        9.17680300       8.75191600      11.20790700       1.95162094      -0.45479131      -1.92062686
H        9.60175900       8.60241300       9.65650100      -0.40400467       0.08955811      -0.05609638
O       11.93514000      14.66550000      12.44087300       1.00123665       0.39888303       0.37368673
H       11.07558100      14.93093700      12.12484400      -0.16068794      -0.39900521      -0.33305158
H       12.20477000      13.76917000      12.15032900      -0.97263431       0.13321498      -0.07818885
27
Properties=species:S:1:pos:R:3:REF_forces:R:3 REF_energy=-18720.310467119514 charge=0 spin=1 external_field="0.0 0.0 0.0" config_type=ORCA_DFT source_file=C_DFTprod_cutcluster_0044.out orca_step=0 pbc="F F F"
O       11.04177200       9.57240000      10.61884400       1.60442614      -2.83928188      -0.23764153
H       11.70390400       8.79158000      10.72833200      -1.78715723       1.91065360      -0.34878169
H       11.42711700      10.23959500      11.17762000       0.24392515       0.89103926       0.84971284
O       13.32430600       9.97889700       8.57912000      -0.75066463       0.02630290       0.89531676
H       13.94014000       9.58175300       9.19998000       0.34173265      -0.02185356      -0.09234349
H       12.51454300      10.07380700       9.13518700       0.45343614      -0.00434969      -0.94730658
O       10.59596500      10.83559600       7.82109900      -1.71171309       1.82614889      -1.12428986
H        9.83107000      11.18829200       8.36036700       0.64311960      -0.66108791      -0.56058923
H       10.35437100      11.21406700       6.91200300       0.69019814      -0.94387852       1.78154852
O        7.77965300      10.30357100      12.15478100      -0.73893778       0.72960416      -0.89018190
H        8.19994100       9.57009200      12.59250900       0.23723319      -0.67538453      -0.08080417
H        7.65567800      10.04404700      11.21642700       0.30933716      -0.01190951       1.25759586
O       11.26020000      13.09178900       9.68856100      -0.55344347       0.75298109      -0.58138761
H       11.18724100      12.53950900       8.88961500       0.12782230      -0.01794975       0.09663019
H       10.63679200      13.84203700       9.56150400       0.60735904      -0.82822304       0.20089044
O        7.98192700      12.07169800       9.10851600       0.42543518       0.00879441       0.54440002
H        8.27198900      12.31409700      10.02649200       0.40813258       0.64375970      -0.41918508
H        7.54931200      11.25733600       9.34176100      -0.62785387      -0.67385672      -0.55293964
O       12.00000000      12.00000000      12.00000000      -0.14079455      -0.31448116      -0.38666931
H       12.51950100      12.52991000      12.61189900      -0.05474316       0.00950480      -0.22423677
H       11.96243900      12.44609700      11.12071400       0.19214143       0.15982205       0.56258071
O        9.02990900      12.65429200      11.49293000      -0.33840729       0.68433520      -0.15606916
H        8.52421000      12.02681900      12.02140100       0.14166301      -0.38089071       0.28674086
H        9.93826700      12.34428800      11.45541300       0.19471141      -0.13444839       0.24874654
O        8.70166800       7.87311400      10.96828300      -0.11275486       0.19636180      -0.13708676
H        7.92971900       8.09044800      10.41197600       0.92241027      -0.17295951       0.16976214
H        9.46189600       8.45940500      10.75277300      -0.72661335      -0.15875298      -0.15441209
27
Properties=species:S:1:pos:R:3:REF_forces:R:3 REF_energy=-18719.320533534075 charge=0 spin=1 external_field="0.0 0.0 0.0" config_type=ORCA_DFT source_file=C_DFTprod_cutcluster_0045.out orca_step=0 pbc="F F F"
O       14.21575100       9.60681500      10.49387200      -0.36506012      -1.17015434       1.44427005
H       13.93677600       9.37538000      11.41238800       0.37620945       0.78053237      -0.74310872
H       13.98198500       8.79075600      10.03105000       0.10417987       0.28046269      -0.28989977
O        9.79181800      14.30255800      10.08032800       0.56259850      -1.75651050      -0.62737370
H       10.47697700      13.67557100      10.43537100      -0.89997904       1.06119164      -0.16500159
H        9.68249000      15.04429500      10.65254100       0.21551693       0.59397157       0.67332199
O       11.91921400      12.81955800      11.54627600       0.13685695       1.30454298      -0.69175489
H       12.00000000      12.00000000      12.00000000      -0.03130401      -1.28856768       0.63874085
H       12.84626900      13.01714900      11.27878900      -0.78693457       0.13540371       0.23241175
O       11.52145400      16.14843400      11.64679200      -0.56096333      -0.86653068       0.04177184
H       12.37139700      16.34895200      12.00806300       0.77261825       0.55652072       0.35010216
H       11.41213800      15.21783800      11.91614900      -0.11081558       0.37090135      -0.31319885
O       13.93459700      11.41634900       8.57565900      -0.98822106       1.42095482       3.14364704
H       14.28042300      11.10217400       9.46279200      -0.57238211       0.11246042      -1.60329341
H       14.37643200      10.95513400       7.91790100       1.43027034      -1.36406361      -1.80087839
O       11.30276900      13.94606200      14.54490600       0.79816227      -0.16615982       0.17577184
H       11.42285700      13.71352600      13.61291200      -0.04814864      -0.12964994      -0.04536619
H       12.18647600      13.81032000      14.93754600      -0.68653180       0.17423565      -0.24839250
O       11.20688500      10.02699600       8.62118400       1.56974200       0.40259807       0.25080527
H       12.05813400      10.54405800       8.76567900      -1.33225058      -0.66158562      -0.34623943
H       11.51911500       9.15711400       8.33215900      -0.18509759       0.30051658       0.04190729
O       13.17362800      10.82264800      13.20768800       1.25041308       1.49839034       2.59876745
H       12.70555500      10.32537300      13.88244300      -0.72121578      -0.79648313      -0.29215797
H       13.62333100      11.42489600      13.90671300      -0.54035403      -0.90147404      -2.30058204
O       14.35450000      13.75538400      11.58109400       2.48646572       0.03137805      -2.39240612
H       14.98981700      13.80305400      10.78078600      -1.53007153      -0.63927394       1.62988032
H       14.45830300      14.65643100      11.86649800      -0.34370355       0.71639224       0.63825563
27
Properties=species:S:1:pos:R:3:REF_forces:R:3 REF_energy=-18719.84941863731 charge=0 spin=1 external_field="0.0 0.0 0.0" config_type=ORCA_DFT source_file=C_DFTprod_cutcluster_0046.out orca_step=0 pbc="F F F"
O       11.73818700      11.60420600      12.83946200       1.19920163       0.34109162      -0.07086655
H       12.00000000      12.00000000      12.00000000      -0.26941620       0.03627086      -0.66844877
H       12.61618000      11.31159900      13.17256100      -0.98311449       0.02514097       0.41672258
O       11.41939300      14.47660800      13.61188300      -0.20585822       0.27635654      -0.29006437
H       11.48091100      13.52078400      13.35808300      -0.84952361       0.69549873       0.23809348
H       10.51685000      14.85679200      13.48783200       1.01174629      -1.14401182      -0.01035779
O       12.88445100      15.70333400      11.25231000      -0.34159993       0.21684187       0.18247439
H       12.44411800      15.46452500      12.07902800       0.00235019      -0.74353018       0.36626910
H       12.64150500      16.63351600      11.23472100       0.23146558       0.23692188      -0.54100349
O        9.64205100      10.02495800      11.68746400       0.57279683       0.08374726      -0.28719039
H        8.73634600       9.94053900      11.95354700      -0.70976059       0.00959973       0.17080030
H        9.95430500      10.85886200      12.06390000       0.09315138      -0.22727895       0.17953902
O        8.76928800      13.52760600      10.70098800      -2.64718163       0.67786060      -0.37746718
H        9.62794800      13.24474500      10.79296700       3.83260725      -0.48825381       1.13432869
H        8.61379300      12.98873300       9.93220200      -1.12469024      -0.16031405      -0.75195841
O       13.37586500      11.95411300      15.16985400      -0.47648289      -0.35473302      -0.01319290
H       14.29201300      11.69250100      15.13449400       0.46979021       0.12047203       0.04234947
H       13.30507600      12.84700800      14.83340200       0.19061697       0.35718344      -0.00539736
O        9.37010700      12.18576200      14.74234400      -0.32635920       2.72292346       1.56693662
H        9.18832000      13.01755200      15.32206300       0.73647435      -2.09390894      -1.55717985
H        8.59598300      11.66552500      14.93579600      -0.51561591      -0.55359002       0.00678684
O       11.74441300      13.01646100      10.05653500      -0.19124150      -0.43161199      -0.03981626
H       12.12872400      13.91285400      10.05736900      -0.10443518      -0.34595589      -0.44715231
H       11.68720200      12.61042300       9.16562100       0.34531291       0.87589701       0.81185067
O       10.94167100       9.89663800      15.54243700      -0.10122737      -1.23854116      -0.59042483
H       10.75823000       9.39277600      14.72222300       0.22540174       0.42497829       0.68634992
H       10.62557100      10.77337400      15.33623800      -0.06440845       0.68094556      -0.15198054
27
Properties=species:S:1:pos:R:3:REF_forces:R:3 REF_energy=-18719.310023723065 charge=0 spin=1 external_field="0.0 0.0 0.0" config_type=ORCA_DFT source_file=C_DFTprod_cutcluster_0047.out orca_step=0 pbc="F F F"
O       10.49265800      10.65737400      15.07677100       0.34073552       0.42015634       0.65007695
H       11.38870500      10.60591000      15.50296200      -1.51938746       0.26961053      -0.44212488
H        9.98507500      11.44378200      15.40524100       1.10438603      -0.83466464      -0.41400420
O        8.82986300      13.38173900      10.08032300       1.25733233       0.30791904      -0.77496865
H        9.78519800      13.39942000       9.83658700      -1.09738666       0.07712539       0.26713250
H        8.82358700      12.74800200      10.79006100      -0.18625700      -0.41980605       0.57867736
O       11.74694100      12.81960100      11.63233000      -1.67092778       1.05532526       0.33942339
H       12.45839000      13.10785800      11.09639500       1.14085929       0.46154750      -0.71881884
H       12.00000000      12.00000000      12.00000000       0.47074203      -1.67127812       0.47009606
O       12.74038200       7.45845300      14.06242400      -0.83958850       1.08968559      -1.35792016
H       13.33214800       6.77146100      13.76961300       0.29659333      -0.37642784      -0.16872496
H       12.42938300       7.89552200      13.20993700       0.64779844      -0.64830217       1.63617546
O       11.24186900       9.50318300      12.54335600      -0.43633573       0.08037464       0.25280533
H       10.68900500       8.75816500      12.26591500      -0.02398433       0.42743220       0.14374365
H       10.74204000       9.93796600      13.27566600       0.47599438      -0.40184597      -0.42781010
O       12.46103600       7.24081800      10.64605200      -2.70723248       1.38332729       0.32323721
H       11.44689800       7.15509200      10.74213600       2.42489468      -0.21530851      -0.34839011
H       12.52035200       8.22945400      10.58659400       0.27922645      -1.16356609       0.02073862
O       15.62944700      12.64049300      14.70205300      -0.65080606       1.04247026       0.80036226
H       15.06324900      13.03537900      15.39730700       0.61450291       0.08300139      -0.60784010
H       15.38898200      11.73081400      14.79538900       0.03772518      -1.14142164      -0.20090915
O        7.90443000      10.51733200      13.02681100       0.27724886       0.62649330      -0.08243004
H        7.58915800       9.61952700      12.95797600       0.00115849      -0.36173275       0.20673167
H        8.57109200      10.55758800      13.72534600      -0.25772627      -0.27294473      -0.11354573
O       10.25242700      13.54550400      14.34170300      -0.57099326       0.18788384       2.18919439
H       10.81085900      13.34098900      13.60229300       0.89497609      -0.08784864      -0.45769594
H       10.75061200      13.56527400      15.20038500      -0.30354852       0.08279462      -1.76321193
27
Properties=species:S:1:pos:R:3:REF_forces:R:3 REF_energy=-18719.97764006842 charge=0 spin=1 external_field="0.0 0.0 0.0" config_type=ORCA_DFT source_file=C_DFTprod_cutcluster_0048.out orca_step=0 pbc="F F F"
O       11.56157300      13.97587000      14.70857200      -0.23847328       1.21449260      -0.84693332
H       11.95267700      13.11563800      14.65406900       0.27023335      -0.86938307      -0.28470455
H       11.61059300      14.32770700      13.79078100       0.03499755      -0.45304440       0.89410865
O        7.20218700      11.22842200      12.29854300       1.32593831       1.29541422       0.37925209
H        8.06829000      11.70885500      12.04537600      -1.77100114      -0.85076828       0.37492616
H        6.83956600      11.77629100      13.02840400       0.37764083      -0.57498412      -0.66669368
O        8.86798400      13.49952500      15.74352300       0.20608226      -0.00639973       2.71464857
H        9.57845100      13.56289400      15.09928900       0.53673459       0.12796515       0.40812754
H        9.27025800      13.55485500      16.69382500      -0.80379751      -0.11845500      -3.04969542
O       12.82554500      12.25720600      16.85247300       1.54482770       1.12002281       0.07909444
H       13.26549800      13.03912200      16.42504400      -0.83514158      -0.87427192       0.42041798
H       13.44201700      12.09571600      17.59994400      -0.69526450      -0.11180880      -0.54858182
O       10.97140600       9.81820000      13.25701700      -0.87499224      -0.74846510       1.66442746
H        9.99795200       9.67166100      13.43761600       1.47045674       0.60807911      -0.28653924
H       11.41133800       9.56974100      14.12832700      -0.65719232       0.24895269      -0.93307166
O       12.00000000      12.00000000      12.00000000       0.93875380      -0.22921371      -0.77015627
H       11.79155400      11.20311100      12.54700500      -0.11235027       0.30268607      -0.75323985
H       12.61142600      11.72314900      11.26303900      -1.06228894       0.24405546       1.34224194
O       11.89318400       9.73167600      15.85028400      -0.34878997      -0.72377531      -0.44415193
H       12.25950900       9.27100300      16.61340100       0.04445535       0.36354676      -0.18925861
H       12.17403300      10.64772300      15.84304800       0.33644481       0.32708430       0.71502472
O        9.21062500      12.84171900      11.30057400      -0.03992024       1.33998476       0.02954877
H       10.19011500      12.87764400      11.37599600      -0.65308946       0.04073960       0.09281200
H        8.81905000      13.75691200      11.34088200       0.96052560      -1.43463412      -0.07844467
O       10.59879300       7.52103000      11.71601800      -1.68603301      -0.88898876      -0.20387430
H       10.82421600       8.26247700      12.27407100       0.29871691       0.55070262       0.23467139
H        9.62076600       7.41131800      11.84723900       1.43252659       0.10046617      -0.29395641
27
Properties=species:S:1:pos:R:3:REF_forces:R:3 REF_energy=-18720.389294134 charge=0 spin=1 external_field="0.0 0.0 0.0" config_type=ORCA_DFT source_file=C_DFTprod_cutcluster_0049.out orca_step=0 pbc="F F F"
O       14.60867000      13.48923900      12.11647300      -0.04594320       2.22477908       0.63135227
H       14.02585100      13.50092500      12.88793700      -0.22329565      -0.85105115       0.26058693
H       14.65482500      14.47514100      12.00589500       0.35989827      -1.22294768      -0.34879182
O       14.17880600       9.62705800       9.38575700       0.56429121      -0.07895257       0.41540659
H       14.10635100      10.59918200       9.37560300      -0.12775658       0.01703891       0.02017154
H       14.89357800       9.48688700      10.03752400      -0.61215971      -0.00946757      -0.45063739
O       13.01003300      13.05270900      15.07188200       0.11819290      -0.49698862      -0.33464453
H       13.20491000      13.43315800      15.91492700       0.77414035       0.33873947       0.93627464
H       12.14057100      13.41955400      14.94357600      -0.94039247       0.25122601      -0.72325297
O       11.36934200      12.76283700      12.04100500       1.27389162      -1.18770854       1.32943568
H       11.15161200      12.82652200      11.14345300      -0.79780345       0.47504497      -2.11870923
H       12.00000000      12.00000000      12.00000000      -0.39891368       0.22843924       0.67202492
O       13.42520800       9.93300700      15.75880600      -1.41598761       1.44820765       0.62127782
H       12.63177300       9.59353400      16.19605800       0.25175833      -1.08216218      -0.10923183
H       13.11949600      10.86736400      15.87911800       1.15908116      -0.28833299      -0.78510960
O       11.58681900       8.40771000      10.39483000       1.92212216      -0.26264659      -1.25538261
H       11.48064000       7.45142500      10.50578400      -0.03175261       0.29382158      -0.05723533
H       12.40982000       8.49457000       9.78509900      -1.67672531       0.13731867       1.42855305
O       12.89444200      10.18740600      12.29612500       1.14377929       1.05076634       2.05834153
H       12.47967100       9.40076900      11.96420300      -0.49298552      -0.84882344      -0.39595876
H       13.22203200      10.02034000      13.23049700      -0.73115273       0.10946159      -1.61464797
O       14.23783700      12.52581500       9.69811200       0.83296925      -0.55139867       2.07053031
H       14.37482200      12.82628200      10.67839700      -0.42787916      -0.59901916      -1.96410684
H       13.75283200      13.21374000       9.28076300      -0.59136714       0.85134827      -0.53105744
O       10.81870200      14.86357800      13.62494000       0.98587405      -0.25915529       0.43999045
H        9.95448100      15.20307300      13.47890200      -1.07625178       0.49150652      -0.04036509
H       10.88857200      14.09418200      13.03970400       0.20436816      -0.17904387      -0.15481436
27
Properties=species:S:1:pos:R:3:REF_forces:R:3 REF_energy=-18719.48910339389 charge=0 spin=1 external_field="0.0 0.0 0.0" config_type=ORCA_DFT source_file=C_DFTprod_cutcluster_0050.out orca_step=0 pbc="F F F"
O        8.35389500      12.50419700      15.11590400       0.02669978      -0.12187472       0.41269855
H        8.64055300      11.59502800      15.22350000      -0.15437506      -0.12218690      -0.05843897
H        7.49505700      12.48380900      14.68358200       0.08778215      -0.08098143      -0.18866988
O       10.38794100      10.56975400       7.84261100       0.13288326      -0.15777072       0.53359301
H       10.79284000      11.43138000       7.99857200      -0.06653095       0.36296353      -0.31369765
H       10.55462700      10.14183800       8.69568900      -0.04057211      -0.08402895      -0.22238954
O       11.05592500      12.28299500      12.15828400       0.70063569      -1.41736798      -1.16360461
H       10.57998200      11.60144400      11.58789600       0.90113480       0.93946425       0.96717339
H       12.00000000      12.00000000      12.00000000      -1.45621010       0.68388063       0.39218510
O       11.20105400       7.57452500      11.44721300       0.88770439      -2.61380887       1.54788886
H       10.66846000       7.01438200      12.12950700       1.70900191       1.40205074      -1.84414337
H       12.13146500       7.15421000      11.35774900      -2.47873729       0.93574283       0.39030475
O        7.85951500      15.46213300      10.67231500       0.42428687       0.08746174      -0.42189204
H        8.25303900      14.64230400      10.99004200      -0.22849200       0.09698865       0.25104150
H        6.91893900      15.42083300      10.83819000      -0.15958319      -0.19997080       0.20100012
O       10.78589300      13.53617000       8.03709800      -0.68284371      -0.14501907      -0.10825646
H       11.28569400      14.31848600       8.25635700       0.32984310       0.30234350       0.15063035
H        9.86733800      13.84931700       8.00537300       0.34361644      -0.20524984       0.00279535
O       10.32344300       9.99448700      10.83952000       0.70201540       0.75725154       0.06649603
H       10.72821400       9.15604300      11.12925300      -0.33074118      -0.14778193      -0.05213689
H        9.45351500       9.84863600      10.50276200      -0.79222883      -0.56463101      -0.30672569
O        7.46506800      11.79883500      12.17656400      -1.55154096      -0.01902807      -1.48737038
H        7.05275500      11.71796200      11.27757000       0.15459577       0.19561453       1.30889611
H        8.36189900      11.60291800      11.96320900       1.37552908      -0.13382356       0.22926117
O        9.71834700      14.59500800      14.03958100       0.86872270      -1.43347564      -0.89089873
H       10.04675100      13.88627100      13.42057700      -0.24467761       1.27681594       0.28238963
H        9.58777600      13.99309300      14.78346300      -0.45791829       0.40642171       0.32187031
27
Properties=species:S:1:pos:R:3:REF_forces:R:3 REF_energy=-18718.702537293204 charge=0 spin=1 external_field="0.0 0.0 0.0" config_type=ORCA_DFT source_file=C_DFTprod_cutcluster_0051.out orca_step=0 pbc="F F F"
O       11.34859200      13.36740500      15.04696400       1.89007413       1.33221509       0.16150926
H       11.40812500      13.07951900      14.10668400       0.11431316       0.32296786       0.51833886
H       12.13092200      13.99975500      15.17591900      -1.80172916      -1.44387816      -0.24407942
O       11.78470100      13.92867800       7.71464100       0.46149793      -1.08343189       1.20102953
H       11.82413500      14.58950700       8.41041900      -0.12793502       0.45871081      -0.15623217
H       12.08410300      13.10937700       8.24260200      -0.74599458       1.37385329      -1.52605819
O       12.76631300      11.89127600       8.94394500       1.82650344      -0.40045017       0.84046021
H       12.89021300      11.01150800       8.55819900      -0.04989077       0.29099079       0.01152806
H       13.68441700      12.24299400       9.11155200      -1.36075578      -0.58221854      -0.25641280
O       13.72899600      10.94495500      15.62491100       0.96450140      -2.92951439      -0.51773897
H       13.70475000      10.00216500      15.24478300       0.10738666       2.19953454       1.03582303
H       13.01369300      11.37355600      15.18874400      -1.15972471       0.83754869      -0.44690008
O        7.86214100      12.18770600      13.58034000      -0.92221400      -0.77783590       0.55926769
H        8.24986400      11.34483400      13.87279100       0.15298965       0.86371666      -0.40720821
H        8.48412800      12.73964400      13.12175100       0.78065475      -0.08306885      -0.13850642
O       11.32291900      12.26508000      12.67904000       0.28352050      -2.57189345      -0.85037989
H       11.03781900      11.35834100      13.00615800       0.38172020       1.44063091      -0.55365214
H       12.00000000      12.00000000      12.00000000      -0.79171045       0.74437942       0.84832768
O        9.30900000      11.50056800       8.51104600      -1.12860299       1.76995917      -1.05137522
H        9.68700400      12.11281000       9.12652900       0.22023727       0.98996139       0.33138236
H        9.66014600      10.71018200       8.80777000       0.90889265      -2.78990543       0.70370672
O       13.34323400      14.36598900      11.99657700      -3.73726986       0.54266494      -1.64150381
H       12.46001500      14.83960100      12.19942300       2.24592090      -1.19495762      -0.43654167
H       13.89750000      14.55878300      12.70410000       1.52026163       0.60594381       2.01137909
O       11.94810500       9.24156800      12.55480800       1.42086082      -1.98396290       1.40864973
H       11.48017800       8.35929000      12.70918900       1.00056703       1.78635885      -0.29892172
H       12.88085300       9.10092600      12.96283400      -2.45407480       0.28168114      -1.10589161
27
Properties=species:S:1:pos:R:3:REF_forces:R:3 REF_energy=-18719.62246927734 charge=0 spin=1 external_field="0.0 0.0 0.0" config_type=ORCA_DFT source_file=C_DFTprod_cutcluster_0052.out orca_step=0 pbc="F F F"
O       13.46124400      11.95065200      13.70980400       0.08746806       0.03420724      -0.25736359
H       14.10318100      11.78676000      14.41472800      -0.01278877       0.14888709      -0.22070361
H       13.89731100      11.71913500      12.87549100       0.28204994      -0.15214427       0.15913135
O       11.42348200      11.36787600      11.53437700       2.01984856      -0.31392488       0.36400139
H       10.65327500      11.87929600      11.65173900      -2.35467965       0.93324989      -0.28293553
H       12.00000000      12.00000000      12.00000000       0.21979391      -0.72037128      -0.39477179
O       14.61041800      14.16977100      10.62704300       0.04963623      -0.92166054      -1.12352969
H       14.71738800      13.52469900       9.88965000      -0.01639022       0.27707819       1.01273457
H       14.47245600      14.96779200      10.11634800      -0.05811347       0.59680641       0.16705703
O       11.22920000      14.81096000       8.72508100       0.08023992       1.18371500       0.05132385
H       10.60763200      14.09316700       8.70264500      -0.04941069      -0.67470426       0.04007080
H       12.12382800      14.48594100       8.64893500      -0.03662701      -0.52200124      -0.02526747
O       11.91860600      14.37687400      13.14904900      -0.68873045       2.12710502      -0.53764548
H       12.56040500      13.67016500      13.12887400       0.89871283       0.16573522      -0.07959185
H       12.18970200      15.21664600      12.66514800      -0.01615954      -2.14437224       0.83964800
O        9.53015000      13.41060600      12.20413400       0.56159541       1.12388132      -1.71811354
H        9.19463100      12.80230500      12.81317300      -0.91189544      -1.25214873       1.65133283
H       10.30012100      13.83920100      12.61345800       0.09716194       0.05090553       0.14973463
O       14.32918700       9.45173600      11.17329200       0.32965319       0.12894639       0.06193798
H       15.00572500       8.78543300      11.37411300      -0.59587351       0.15067396      -0.15044354
H       13.53556500       8.99522100      10.86430600       0.19634611      -0.09474063       0.25208301
O       10.75353700       8.06454600      12.21216400       0.25653657       1.57887230       0.72424089
H       11.08777800       8.69008200      12.90880800       0.19063677      -1.21661402      -0.26763391
H       10.46792000       8.76140400      11.60905400      -0.22413136      -0.33889137      -0.53332309
O       12.50469600       9.36285600      14.28946600       0.49942145       1.43246915      -1.00634723
H       12.73147500      10.29611000      13.91691100      -0.97241880      -2.06434279       1.30150620
H       11.93033200       9.41880000      15.06175400       0.16811787       0.48338342      -0.17713226
27
Properties=species:S:1:pos:R:3:REF_forces:R:3 REF_energy=-18719.820946754415 charge=0 spin=1 external_field="0.0 0.0 0.0" config_type=ORCA_DFT source_file=C_DFTprod_cutcluster_0053.out orca_step=0 pbc="F F F"
O       13.73383700       8.89344000      13.55816500       1.47755062      -0.00578154      -0.75356335
H       13.91550400       8.64228500      12.62608300       0.48807358       0.29280841       0.48860158
H       12.80740900       8.77376200      13.52489300      -1.80045302      -0.17054159       0.27504820
O       11.95231800      11.33591000      11.18974700      -0.36174200       3.48207170       1.32341009
H       11.57582500      12.00724900      10.55152900       0.40075402      -1.40332770       0.07037706
H       12.00000000      12.00000000      12.00000000       0.02387696      -2.10403189      -1.21660939
O       11.31539600      12.95887600       8.69843200       1.10817486       0.27209899      -2.22478566
H       10.71299200      12.79619700       7.93230400       0.39227262       0.07999320       1.10095211
H       12.17791700      13.12491700       8.20042000      -1.47085166      -0.34577355       1.27375720
O       11.40917300       8.50415700      11.89338900      -2.91394250       0.65186870       1.61285529
H       10.52685800       8.40580400      12.42664000       2.44489694       0.03847666      -1.52097578
H       11.38597000       9.47103700      11.69825100       0.33898095      -0.62703354      -0.14364389
O       12.38006800      12.85384400      13.63938300       2.14493649      -0.24256807       0.00235786
H       12.49495800      13.81492600      13.41879200      -0.09938070      -0.78110002       0.34481977
H       13.31049400      12.50218900      13.85471800      -2.14043855       0.74622392      -0.42243845
O       12.33929600      15.45992600      12.83583900       1.91058114       1.72502971       2.77741974
H       12.63045700      16.36481600      13.17192000      -0.47957032      -1.94081593      -0.40408859
H       11.90552400      15.66773300      12.05504100      -1.41822945       0.36524945      -2.46449477
O       14.78765700      11.91045000      10.77827700      -2.08890326      -1.83039558      -0.57067274
H       14.93909600      12.65499200      11.32243100       0.33972673       1.15858792       0.92825830
H       13.82859400      11.62536100      10.98340000       1.49967126       0.60579581      -0.47489637
O       14.57211500       8.92474500      10.74523600       1.17978759       1.27053854      -0.42564662
H       14.81177700       9.88814200      10.75036000      -0.64675256      -0.76353306       0.28199106
H       15.40869200       8.60683600      10.36940100      -0.40914909      -0.52207246       0.14863189
O       10.49229600      12.62305500      16.10956900      -0.16308421      -0.09103557       0.42180920
H       10.91715100      11.90354200      16.58096600      -0.02040350      -0.05784648       0.30535889
H       10.79055100      12.47176200      15.21705700       0.26361698       0.19711395      -0.73383260
27
Properties=species:S:1:pos:R:3:REF_forces:R:3 REF_energy=-18719.262254856298 charge=0 spin=1 external_field="0.0 0.0 0.0" config_type=ORCA_DFT source_file=C_DFTprod_cutcluster_0054.out orca_step=0 pbc="F F F"
O        9.07490500      12.13479100      11.35625700       1.38145820       1.74377829      -2.49384273
H        8.26193400      12.26444000      11.78701400      -1.71907050      -0.14605549       1.31350888
H        9.02815300      12.91149400      10.70856000       0.47405078      -1.63741252       1.12897164
O       11.83998900      14.18754700      16.49875700      -1.12208262      -0.50213258      -1.82281077
H       11.68130500      13.52056400      15.74569800       0.31358143       1.68349960       1.66029231
H       11.23039000      14.93908500      16.26845900       0.76932189      -1.13097304       0.22913416
O       11.50109700      10.52528300      14.83784400      -0.88115790      -0.17521992       1.77242414
H       10.78570500      11.06736600      15.24008200       0.82104020      -0.51162278      -0.76729597
H       11.73100400      10.85462400      13.98403000      -0.00930174       0.80891138      -1.10651017
O       12.24792500      14.23880600      13.61029700       2.32429024      -0.43670005       1.60006323
H       12.32924300      13.37234300      13.15834900       0.16781011       0.42043397       0.06337698
H       13.03572500      14.42026700      14.25222700      -1.95679184      -0.96236805      -1.91353298
O       12.00000000      12.00000000      12.00000000       1.79515696      -1.98216015      -1.26245278
H       11.17176000      11.81307100      11.51879900       0.25215510       0.17349723       0.33230781
H       12.72907000      11.42296000      11.54289300      -2.07115483       1.62945737       1.10217596
O       12.49291900       8.20614100      13.59115400       0.28167445      -0.00070798       0.92199926
H       11.93866400       8.68834300      14.22699500      -0.28506399       0.19166259      -0.35157838
H       13.22959200       8.00251700      14.19283900      -0.03107148      -0.18952102      -0.62490148
O       13.23307800      10.35846700       8.89339900       0.75539356      -0.50037682       0.55800831
H       13.44107400       9.46188900       9.24092400      -0.64595943       0.92150278      -0.47652711
H       12.29093800      10.44282900       8.74223500      -0.16114149      -0.43662426       0.02885158
O        9.33537700       8.18363600      11.79320300       0.99839826      -1.95467392       1.12875294
H        9.93052100       7.61966200      12.39779700      -1.23753483       1.62082741      -1.39665502
H        9.56825500       9.09659600      11.93157000       0.31323289       0.38080607       0.26685826
O       11.31944800      16.51811500      14.12408500      -1.45147300      -1.18862818      -2.30396690
H       11.57026700      15.57481900      13.90534100      -0.52269909       1.34617799      -0.01252868
H       11.76125800      16.72124500      14.89713900       1.44693855       0.83462206       2.42587736
27
Properties=species:S:1:pos:R:3:REF_forces:R:3 REF_energy=-18719.671554764107 charge=0 spin=1 external_field="0.0 0.0 0.0" config_type=ORCA_DFT source_file=C_DFTprod_cutcluster_0055.out orca_step=0 pbc="F F F"
O       12.91504600      14.47177700      12.59787700       1.62679145      -1.27743810       0.62389720
H       12.34753300      15.19504400      12.46530300      -1.06590849       1.60778035      -0.10241625
H       13.55651500      14.70554900      13.29369500      -0.53971470      -0.06032590      -0.49014959
O       10.54160900       9.84826400      13.13369200       2.35789625      -0.23052795       0.98431221
H       10.89445300      10.64612600      12.72906400       0.09006102       0.23043653      -0.24541382
H        9.62124500       9.92542200      13.04810200      -1.90956921       0.12754730      -0.45808850
O        9.81945700      11.06948200      16.21227800       0.97962591      -0.11287488       1.85451746
H       10.19295700      10.97041200      15.33005800       0.42663244      -0.33822952       0.16498796
H       10.51342900      10.86594200      16.92505700      -1.40395824       0.33611551      -2.12859785
O       12.00000000      12.00000000      12.00000000      -0.22909796       0.09815398       0.44080035
H       12.25153400      12.90176100      12.24120600       0.28819312       0.25785020       0.64060089
H       11.76271700      12.13791200      11.09392500      -0.22718562      -0.41570180      -1.26020379
O       14.19514600      10.42278700      11.98444800       0.73838962       0.48491251       1.52570111
H       14.56355200      10.54698700      12.90572800      -0.58081554      -0.29990399      -1.64082946
H       13.38801500      10.98020700      11.97354300       0.20625715      -0.20723515      -0.01941209
O        8.21390100      10.34934300      11.75448400      -0.82365255       0.00596635       1.54101805
H        8.24684300      10.06446600      10.83623600      -0.49705588      -0.58833550       0.39162290
H        7.59292800       9.84226200      12.35692600       0.89538654       0.60524493      -1.96059214
O       13.28034800      11.95408000       8.97839300       1.60896557       1.65796412       0.11920227
H       13.26096800      12.84230000       8.53337500      -0.16450197      -1.27137672       0.46945689
H       14.20082700      11.97194500       9.37400700      -1.55004180      -0.38201058      -0.46653704
O       13.91944900       7.61765400      12.54862500       0.17869544      -0.98859562      -0.24001126
H       14.04349900       8.43622000      12.06580600      -0.07984387       0.44627381       0.19988580
H       13.84800100       7.82656500      13.48344200      -0.16539949       0.37292893      -0.01337349
O       13.02592900       9.03283200      14.96627200      -1.86193998       0.72909282      -1.41378160
H       12.37237100       9.55557600      14.39279000       0.88967025      -1.43926658       0.91958761
H       13.60655800       9.71006600      15.27147600       0.81212058       0.65155492       0.56381617
27
Properties=species:S:1:pos:R:3:REF_forces:R:3 REF_energy=-18719.030355271596 charge=0 spin=1 external_field="0.0 0.0 0.0" config_type=ORCA_DFT source_file=C_DFTprod_cutcluster_0056.out orca_step=0 pbc="F F F"
O       11.49833900      14.76544100      10.89343300       0.34648857       1.27124498       0.20740391
H       11.67290100      15.58352500      10.40969300       0.07676034       0.51621708       0.66895013
H       11.37261400      14.24139500      10.12583900      -0.30441653      -1.80596639      -0.82913383
O       11.27684700       8.96058400      10.63895000       0.86659224       0.41899060      -0.36922289
H       11.10518500       9.38684100      11.50503800       0.48931187       0.02142634      -0.98136634
H       12.00751800       9.46940000      10.19033300      -1.37046406      -0.61569832       1.18824699
O       14.85797800      14.99669000      12.67219800       2.28720197       0.99331668       1.62692864
H       14.05001700      14.85461800      12.23741700      -1.81590777       0.34918335      -1.06807799
H       15.01578000      15.94661100      12.90887900      -0.71944352      -1.40097895      -0.63863729
O       10.13526600       8.47716500      14.27628600       0.29624849      -0.06033706      -0.19471511
H       10.30604400       9.40594700      14.03379700      -0.47693931      -0.51275838       0.49868169
H        9.30509300       8.35557200      14.75510600       0.27610297       0.64699553      -0.28214414
O       13.82531600      13.58635800      15.19859600      -0.10733914      -0.76042655       0.80692577
H       13.68604800      14.31882000      15.79169300       0.00134793       0.37131803       0.25264309
H       13.92234200      13.95719200      14.33281000       0.36337789       0.51449948      -0.93955809
O       13.90528000      10.58282300      12.53982400       2.73599973       1.19950256       1.28156066
H       14.53713000      10.81313700      11.80854900      -0.86150896      -0.41739703       0.91817613
H       14.48111700      10.80293300      13.37639500      -1.82728747      -0.67464646      -2.27998123
O       11.18851500      11.59992300      11.68216200      -1.44145325       0.68442247      -0.30769386
H       10.41592600      12.19335500      11.88740200       1.29338192      -0.73743209      -0.14067705
H       12.00000000      12.00000000      12.00000000      -0.05099408       0.04676534       0.52780504
O       11.83549800      11.70893700      14.63410100      -2.69970490       1.18960371       0.63950437
H       12.45948800      12.28614600      15.07038700       1.06523491       0.22243494       0.16004645
H       10.99846800      12.23226100      14.87745500       1.50044552      -1.46739214      -0.77898369
O        8.39895900      12.93577800      11.57792300      -0.53102453      -0.09514507       0.62530324
H        8.54297500      13.47559100      10.80614100       0.05041311       0.29353696      -0.39361535
H        7.53078300      13.20867900      11.92374700       0.55757600      -0.19127960      -0.19836926
27
Properties=species:S:1:pos:R:3:REF_forces:R:3 REF_energy=-18720.10050573608 charge=0 spin=1 external_field="0.0 0.0 0.0" config_type=ORCA_DFT source_file=C_DFTprod_cutcluster_0057.out orca_step=0 pbc="F F F"
O       10.98050800      10.49968300      12.24697300       0.14688909       0.32024979       1.38116181
H       10.31286000       9.83935100      12.10075100      -0.47805281      -0.44746290      -0.36700680
H       10.80132600      10.78569000      13.17848500       0.18054216       0.02731227      -0.67613159
O       14.30051400      13.16817000      10.33098800      -0.81678493       1.99264819      -1.80361378
H       14.29725800      12.23795000      10.19395600       0.05255973      -1.86946406       0.12434134
H       13.93995000      13.46212800       9.44599800       0.78761602      -0.09880699       1.34322806
O       10.32621300      11.54855600       8.81268400       0.49242836       0.78471946       0.94126726
H        9.64674900      11.69804500       9.49078900       0.01279489      -0.10437625      -0.32871130
H       11.01950200      12.18334600       9.10239000      -0.55993828      -0.62133911      -0.49267071
O        9.25158500      13.44130000      11.95423700       0.12099412       1.24267606       1.83735247
H       10.15869000      13.18740600      11.75667100       0.38555160      -0.03707130      -0.09023159
H        9.39193800      13.99866600      12.78672000      -0.50512375      -1.17642171      -1.74299570
O       10.83186100      11.95538500      15.20045100       0.43524800      -1.07186512       0.27421820
H       11.49273300      12.64300100      14.98234900       0.11893091      -0.17407995       0.38196826
H       11.27281700      11.30703900      15.80446600      -0.45925017       1.08659919      -0.76226823
O       12.14306400      12.94067000      11.92680400      -1.21687031       0.97911611       1.17532519
H       12.76364800      13.18059000      11.24165700       0.99882465      -0.31603293      -0.45379573
H       12.00000000      12.00000000      12.00000000       0.26804339      -0.50191558      -0.41393113
O       12.86273300      13.85638300      14.52369700      -0.06853019       0.36294626       1.30529353
H       12.65684700      13.60331600      13.61929200      -0.16459232       0.43927429      -0.86551078
H       12.57570300      14.76677800      14.73713300       0.18239855      -0.84106550      -0.66291833
O       13.10940600      10.47338700      10.05782200      -1.17336909       0.77767726       0.16526019
H       12.21138800      10.55431300      10.46481100       0.95849761      -0.20515739      -0.54500542
H       13.48075900       9.70128400      10.46542900       0.34896017      -0.59299249       0.31126677
O       14.60704600       9.76368900      14.00671100       0.90925754       1.86683387       1.40157138
H       13.77576500       9.37766500      13.72279500      -0.37960845       0.65278350       0.49352725
H       14.54022300      10.58618400      14.62499600      -0.57741649      -2.47478494      -1.93099061
27
Properties=species:S:1:pos:R:3:REF_forces:R:3 REF_energy=-18719.98265013507 charge=0 spin=1 external_field="0.0 0.0 0.0" config_type=ORCA_DFT source_file=C_DFTprod_cutcluster_0058.out orca_step=0 pbc="F F F"
O        9.70158500       9.56353100      11.50113800       0.39841730      -1.49562111      -1.54986902
H       10.25827900       8.89034000      11.93880900      -0.54732733       0.49392901       0.04885523
H        9.56665800       9.14611400      10.59613200       0.12498704       1.00059537       1.51620243
O       11.92725500       9.77476800      13.86757900      -1.52847652      -3.31038587      -0.74527349
H       12.43325700      10.52656800      13.71724300       1.76911364       2.35024583      -0.43670386
H       12.06288200       9.20004600      13.07221000       0.09220424       0.87450075       1.21789443
O       12.11935400      13.20880000      15.73270600      -0.38822324      -0.30379067      -0.55898785
H       11.39741400      12.70506200      15.28915600       0.26608539      -0.24797659       0.39377970
H       11.62861600      13.93784100      16.09660700      -0.18809616       0.47419029       0.77972648
O       12.66850200      14.63035600      13.52707900       0.48212636       0.00866426      -0.44447702
H       12.03997700      14.51764000      14.25202500       0.23888944      -0.00378286      -0.06024980
H       12.51847900      15.44515600      13.04702100      -0.33249550       0.08687038       0.12077537
O       10.95234900      12.20131300       8.14730000      -0.69084128       1.62421391      -0.01354000
H       10.32937600      12.94150200       7.93082400       0.50952208      -1.18037997      -0.00592619
H       11.48739200      12.66527400       8.80734300       0.13106647      -0.49231544       0.07803309
O        9.95445500      12.05844300      14.37094200      -1.44687515       1.52647507       1.04582514
H        9.29741600      12.81041000      14.39428900       0.87460282      -1.28920732       0.01123824
H       10.47754900      12.27767400      13.60432400       0.28195275      -0.20841456      -1.22485595
O       11.03248200      12.07024000      11.77514400       1.38297608      -0.76926122       0.22876968
H       12.00000000      12.00000000      12.00000000      -0.89791722       0.23024560      -0.28153890
H       10.75933900      11.12908800      11.68951800      -0.38840640       0.51767521      -0.10186285
O       10.22508800      14.66257900      11.34088800      -0.79598871       0.67584372       0.08109805
H       11.03033100      15.09522900      11.06774100       0.29315463      -0.19969127      -0.13214016
H       10.36909900      13.71164000      11.37978000       0.45864617      -0.33529003      -0.01475315
O       13.60649300      12.12661800      13.04499100       0.43073011       1.09419181      -0.47257255
H       14.57136700      12.06965500      12.86881700      -1.06386333       0.15069550       0.20518706
H       13.36226800      13.11143600      13.08420900       0.53403632      -1.27221979       0.31536598
27
Properties=species:S:1:pos:R:3:REF_forces:R:3 REF_energy=-18719.878289566364 charge=0 spin=1 external_field="0.0 0.0 0.0" config_type=ORCA_DFT source_file=C_DFTprod_cutcluster_0059.out orca_step=0 pbc="F F F"
O       10.87622400       9.61494800      10.07053900       0.67843190       0.54888979       0.31940359
H       11.07481500       9.82591600      11.01088700      -0.30801463      -0.05130164      -1.28873470
H       11.61282100      10.06752200       9.57605200      -0.75027794      -0.75408045       0.72950409
O        9.24387300      13.07854700      10.75859100       0.59986541      -1.88064198      -0.18575440
H        9.46700100      12.20518500      10.31164200      -0.43778403       1.57089782       0.81170736
H        9.58675400      12.96109500      11.66957700      -0.12307044       0.30215617      -0.75548730
O       15.16659200       9.87068300      13.65987400      -0.23730744       1.59088856      -2.10022033
H       15.70337900       9.14198700      13.30602500      -0.07039228       0.47051788      -0.02326134
H       15.15818700      10.61284600      12.93911000       0.35441811      -2.04729355       1.92506561
O       12.49424800      11.30383100      11.63234200       2.09326704      -1.69619617      -1.53464506
H       12.00000000      12.00000000      12.00000000      -1.18433315       1.47791541       1.32203785
H       12.51014700      10.46102800      12.13659800      -0.56304335       1.22374832       0.46515389
O       14.58988600      13.56970100      13.28255100       0.35867920       1.24789329       0.11209604
H       14.62502100      14.44067500      12.83304500       0.03538337      -0.86388836       0.38841324
H       14.29827900      12.96085800      12.61457800      -0.47006999      -0.39679792      -0.57839829
O       11.73749700      11.70564500      15.06110200      -0.09314948      -1.41751093      -0.03861730
H       10.88667400      11.42902600      15.44258500       0.34407837       0.31903485      -0.08118593
H       12.12896800      10.81822700      14.80788000      -0.52860821       1.45192839       0.16958638
O       11.33331000      13.64363700      12.78436400       0.62219308       1.94628184      -0.33087683
H       11.37669500      13.32889000      13.69612500       0.33645325       0.00842545       0.30110443
H       11.72413000      14.58103500      12.75578500      -0.93974676      -2.30620633       0.23959536
O       12.43951100       9.51692000      13.53153800       1.13325283      -2.10876153      -1.04787662
H       13.44491100       9.47614100      13.43116200      -0.88554245       0.17071278       0.75465802
H       12.17087200       8.62986300      13.17672400       0.02615486       1.02681543       0.70028206
O       13.53339000      10.60107400       9.24477600      -0.08376871       0.36738846      -0.29297250
H       13.36585300      10.99037200      10.12697500      -0.13047480       0.08636382      -0.30197717
H       13.31083200      11.30153800       8.60938100       0.22340631      -0.28717929       0.32139985
27
Properties=species:S:1:pos:R:3:REF_forces:R:3 REF_energy=-18719.556862165602 charge=0 spin=1 external_field="0.0 0.0 0.0" config_type=ORCA_DFT source_file=C_DFTprod_cutcluster_0060.out orca_step=0 pbc="F F F"
O       15.24740900      10.80780200      12.77287100      -0.07131742       0.13721187       2.77400033
H       15.54689100      11.02069500      13.73509100      -0.80885893      -0.69331170      -2.55856290
H       14.43043100      10.27133100      12.91568400       0.80912741       0.41145300       0.00684664
O       12.16827300      16.23185400      11.98344700      -0.05948921      -1.32985904       0.29723667
H       12.31903600      15.47773600      12.60881800      -0.14171207       0.94674710      -0.63942703
H       11.78399200      15.78660900      11.20382000       0.24488422       0.19412884       0.50578838
O       11.63773100      14.66933300       9.33252100       0.07673412       1.13847017       0.17821587
H       11.51211900      15.59263100       9.01571900       0.09992773      -1.11062306       0.06277935
H       11.24135800      14.08959900       8.68320000      -0.17202013       0.02099810      -0.27210563
O       13.22338200       9.68597000      14.91197500      -0.19503392       1.44491082      -0.30394267
H       13.56888900       9.21985400      15.67032500       0.06331666      -0.02340758       0.38636387
H       13.03664600      10.61348100      15.20845500       0.06360426      -1.30225392      -0.07522287
O       15.10891100      13.08223700      11.16912400      -0.08266946       1.55409710      -1.36362138
H       14.32920600      13.63477700      11.32100300       0.36896639      -0.40198229       0.23038737
H       15.18151900      12.36493900      11.77693000      -0.31200313      -0.98372060       0.98857890
O       10.12120800      12.07675200      14.75752000      -1.35875274      -0.76789025      -0.80629770
H        9.37316300      11.45884900      14.91721200       0.79183705       0.55272433       0.20017320
H       10.06489000      12.19297300      13.79263800       0.56079955       0.16013665       0.33438449
O       11.45937500      12.27817700      17.09440400      -0.33762084       1.20020375      -1.16124680
H       11.02814800      12.38516200      16.17302000       0.91355822      -0.00249037       1.95388901
H       11.64807200      13.18870000      17.43350400      -0.33108365      -1.21203581      -0.66988746
O       13.37379400      15.03921700      14.75264000      -1.24052019       2.55429806      -0.41370729
H       14.28080000      14.80970400      14.86414500       1.11542804      -0.20486552       0.10047029
H       13.36951100      16.05323000      14.67255100       0.07089843      -2.31640055       0.19488161
O       12.00000000      12.00000000      12.00000000      -2.01145931      -0.76925278       0.87185631
H       12.04474200      12.27328500      11.10854100       0.14381816       0.48937332      -1.56651342
H       12.83634300      12.17393000      12.36353500       1.79964055       0.31334037       0.74468281
27
Properties=species:S:1:pos:R:3:REF_forces:R:3 REF_energy=-18719.413550080524 charge=0 spin=1 external_field="0.0 0.0 0.0" config_type=ORCA_DFT source_file=C_DFTprod_cutcluster_0061.out orca_step=0 pbc="F F F"
O       11.08751700      12.17533100      11.71331500      -0.72947247       0.57454940       0.39699224
H       10.82524600      11.86187700      10.82467300       1.05410836      -0.37840106       0.68139021
H       12.00000000      12.00000000      12.00000000      -0.32347771      -0.44078117      -0.71281670
O        9.05997500      13.85643500      15.50710600      -2.55153073       2.28936802       1.71981376
H        8.09484300      13.66203700      15.56228700       1.20958874       0.25169744      -0.04992800
H        9.41217900      13.15987300      15.03939000       1.36709720      -2.60232678      -1.65122104
O       12.63321600      12.99844100       9.24101700      -0.22634282      -0.69331411      -0.23541665
H       12.14025700      12.15340100       9.18020800       0.44266522       0.73846891      -0.40417467
H       12.33429200      13.30439200      10.09385900       0.14339547       0.43070841       0.44938583
O       12.16868200      11.09391600      16.45121000       1.10487474      -0.19332656      -0.07947733
H       11.59087900      11.07582200      15.67768500      -0.04701499       0.07784838      -0.23420628
H       13.06911300      10.94561200      16.09033300      -1.00304177       0.14388439       0.33747140
O       10.87000800      10.88540600       9.19562400      -2.36842611      -1.76111488      -0.87504710
H       11.32110900      10.02218100       9.01559200      -0.66365392       1.00637742       0.27774185
H        9.87679500      10.73012200       8.96691900       2.72049516       0.36400236       0.46336527
O       10.93964700      15.30409400      11.56507100       0.23246713      -0.83740790      -1.12086623
H       10.94344800      14.33846100      11.27699100      -0.06516533       1.88471739       0.47247968
H       11.07736200      15.88703300      10.78168700      -0.24504790      -1.06372665       0.72109041
O       14.01268100      14.76462100      12.50146000       0.24705182       0.38971730       1.91417817
H       13.97878500      15.34203100      13.33327600      -0.13799153      -0.95381532      -2.27194463
H       13.85883600      15.28453700      11.70548800      -0.14506520       0.28086090       0.46600251
O       10.35858500      10.81853500      14.26661900      -0.45967163      -1.07961730      -0.61254249
H       10.17064400       9.84348000      14.31915600       0.25698307       1.55233306      -0.30323778
H       10.37064000      11.08672600      13.31477000       0.12751001      -0.32625291       0.82650359
O       13.77541000      11.63422200      13.27211100       0.44802618       1.38797091       0.33535215
H       14.43370800      11.60546200      14.00409500      -0.74189218       0.04569133      -0.87887944
H       13.72080300      12.60510600      13.04586500       0.35353124      -1.08811099       0.36799128
27
Properties=species:S:1:pos:R:3:REF_forces:R:3 REF_energy=-18720.37911792418 charge=0 spin=1 external_field="0.0 0.0 0.0" config_type=ORCA_DFT source_file=C_DFTprod_cutcluster_0062.out orca_step=0 pbc="F F F"
O       13.89998000      12.40641200       9.95156400       0.94641646       1.22194921       1.10058491
H       12.98943500      12.14196100       9.91421000      -0.89965118      -0.48872412      -0.06567503
H       13.86610800      13.11354400      10.65897400       0.09324585      -1.15552615      -1.43151640
O       13.24899300      14.37240900      11.72155100       0.92185404       2.01237493       1.00380832
H       14.04308200      14.74806800      12.19505200      -0.98971924      -0.70291852      -0.62639277
H       12.75374000      15.18934100      11.49803100       0.22606051      -0.73351548      -0.14763358
O       13.57564100      10.59000200      14.80962300      -0.38935447      -0.81071656      -0.50107030
H       13.36019700      10.27404000      15.69385400       0.00656470       0.11141511       0.00579038
H       13.24034500       9.88048700      14.21483300       0.36844430       0.66596986       0.39116684
O       11.83626300      13.26291400      13.81402000      -0.52266783       0.59212783      -0.12777638
H       10.97138700      13.71158900      13.92112600       0.66160310      -0.52626007      -0.14470735
H       12.30477400      13.76417200      13.11618500      -0.26572528      -0.23287578       0.41248818
O       10.21478600      10.81836200      14.26414000       2.11094461      -0.78645660      -0.50566970
H       11.16044000      11.17213100      14.20697200      -1.81152121      -0.07579901       0.18469593
H       10.40701800       9.88104500      13.98893600      -0.39331351       0.82445849       0.26926538
O       13.93206200       9.38488900      12.05591700       0.13839637      -0.28581310       0.40365958
H       14.72432000       9.77547800      12.44773800      -0.15425047      -0.07609607      -0.09976241
H       13.50833100      10.10164600      11.58007900      -0.21737722       0.43207664      -0.38269058
O       11.28688400       8.38269300      13.14251700       0.95501521      -0.74740010       0.62976744
H       11.62292400       7.69976400      13.78569500      -0.37078319       1.05763601      -1.21835260
H       12.05014200       8.64414000      12.57152100      -0.49417877      -0.35678368       0.64217055
O       11.62520100      11.35473400      11.31242700       0.96800098       0.96387831       1.04891941
H       10.65194500      11.37583500      11.39620400       0.38844353       0.37796824       0.20303659
H       12.00000000      12.00000000      12.00000000      -1.32880021      -1.35849835      -1.20657792
O        8.93696800      12.00098400      12.00004400       1.97887782       0.26604543       0.72365643
H        8.12719800      11.93606900      11.56246700      -1.99511691      -0.26559410      -1.04458191
H        8.99154600      11.29293800      12.65355400       0.06859200       0.07707767       0.48339700
27
Properties=species:S:1:pos:R:3:REF_forces:R:3 REF_energy=-18720.100382311684 charge=0 spin=1 external_field="0.0 0.0 0.0" config_type=ORCA_DFT source_file=C_DFTprod_cutcluster_0063.out orca_step=0 pbc="F F F"
O       11.19420900      10.29255600      14.77933700       0.88840347      -0.59193371       1.16261072
H       11.72985300       9.63307900      15.29481600      -0.68467680       0.63110807      -1.00177139
H       11.22075400      11.04695900      15.38400400      -0.12263777       0.13506890      -0.25375469
O       14.62375600      13.13234900      11.76608400      -1.34040118      -0.62453890       0.33392015
H       15.19774800      12.42061300      11.47277500       0.08592540      -0.05527466      -0.29573551
H       13.70596700      12.71371900      11.82462400       1.00756337       0.51871779      -0.20836386
O       15.32721100      12.90476300      14.36655700       2.01159182       1.09876524       1.60582739
H       15.09170400      13.04616300      13.45145800      -0.00212095       0.50668240      -1.23101405
H       16.04192100      13.59642700      14.58419600      -1.73962236      -1.66078447      -0.54144089
O       15.00961800       9.93569400      13.59009800      -0.19378211      -0.18783782      -0.58157736
H       14.87695200      10.88342400      13.59779600       0.17689659       0.49891895       0.59619614
H       14.74896100       9.72470900      12.68569100       0.02658423      -0.39516897       0.09916005
O       13.17397800      14.97294100       9.83486800       0.14500689       0.21002382       0.57063371
H       13.12730300      15.74974700       9.26719000       0.04430258       0.01253387       0.15892962
H       13.59401700      15.26585800      10.67300200      -0.34066014      -0.36221843      -0.81310228
O       13.17264300      14.24792100      15.23724500      -0.95508967      -1.63021225      -1.26616504
H       12.28239400      13.94694700      14.89224700       1.53535915       0.65234867       0.58116912
H       13.82295100      13.58086600      14.83527600      -0.88345893       1.21678068       0.94918657
O       10.54525600      13.24947700       9.95537600      -1.01040793      -0.74371607      -1.67446999
H       10.30355800      13.11446800       9.00364400      -0.07040062      -0.10401800       1.32654962
H       11.33672000      13.75458400       9.83745600       1.25397411       0.91703862       0.34758412
O       12.00000000      12.00000000      12.00000000       1.39295242       0.20883396       1.04433112
H       11.42274000      12.03044600      11.26481000      -1.17025615       0.47833198      -1.62037058
H       11.70314600      11.24749600      12.49691300      -0.05484827      -0.63303573       0.74301272
O        8.85739600       9.04893900      13.67403600      -1.26214204      -1.03507592      -0.05366875
H        9.44211700       9.64627900      14.13473900       0.29720093       0.11420229       0.62873473
H        8.25780200       8.59383600      14.31080800       0.96474385       0.82445962      -0.60641134
27
Properties=species:S:1:pos:R:3:REF_forces:R:3 REF_energy=-18719.8328356776 charge=0 spin=1 external_field="0.0 0.0 0.0" config_type=ORCA_DFT source_file=C_DFTprod_cutcluster_0064.out orca_step=0 pbc="F F F"
O       13.53599500      14.65489900      13.25357400       0.55849888       0.10907063       0.77930071
H       13.71152200      15.53104500      13.57949900       0.32421984       0.90476387       0.06782447
H       13.89592600      14.08219200      13.97092700      -0.20438354      -0.76373545      -0.65614774
O       10.22170500      10.22357700       9.41134500      -0.04263918       0.30458555       0.12754781
H        9.33494400       9.99110500       9.10623100       0.24805157       0.14389391       0.15965431
H       10.14437300      11.06755500       9.89868900      -0.12692262      -0.49925742      -0.25503000
O       10.98254700      14.87100100      13.35489900      -0.44672741       0.75154518      -2.36736851
H       11.97616100      14.90365900      13.34807400      -0.85919476      -0.54988403      -0.05890567
H       10.72647800      14.83527100      12.38003800       0.53928975       0.09158085       2.06342002
O       14.57228900      13.96130600      10.86961700       1.51120564       1.84980211      -1.07754705
H       15.30637500      14.54635100      10.42762600      -2.33817363      -1.55771130       1.62269784
H       14.15354000      14.44716000      11.63212100       0.96095322      -0.53829381      -0.92102882
O       13.89223800      12.13907400      14.33926400       0.58892958       0.85666001       0.39545734
H       13.38632200      12.22174800      15.14692200      -0.26206701      -0.23487487       0.28677660
H       13.23433500      11.93846000      13.64993600      -0.25037178      -0.54183355      -0.25568399
O       10.96221300      12.89720500      10.12333300      -1.06674919       1.86637704       0.91757310
H       11.53550000      12.73446000       9.40036400       1.03621266      -0.43095605      -1.14964475
H       10.79890800      13.87099000      10.03371700       0.06384060      -1.31384837       0.22994087
O       12.31944000      11.21850500      12.38369100       0.32901037      -1.28637716       1.83144011
H       12.95936500      10.83725300      11.77135600       0.05955375       0.05541561      -0.43079639
H       12.00000000      12.00000000      12.00000000      -0.81838096       1.61653279      -1.10481360
O       13.26578500      10.19088200      10.20756300       0.36312706      -0.47558655      -0.25185603
H       12.50106700       9.59828600      10.15297200      -0.01858147       0.35401723      -0.26627694
H       13.16123200      10.87236100       9.53723300      -0.10084603      -0.21749308      -0.04289243
O       10.13790500      12.76282700      14.59903000       0.89533044       0.39832793       0.30974967
H       10.24482200      13.62045500      14.12047300      -0.15871488      -0.72270892       0.30205435
H        9.28805500      12.38809000      14.43359200      -0.78447078      -0.17001195      -0.25544534
27
Properties=species:S:1:pos:R:3:REF_forces:R:3 REF_energy=-18720.096331696706 charge=0 spin=1 external_field="0.0 0.0 0.0" config_type=ORCA_DFT source_file=C_DFTprod_cutcluster_0065.out orca_step=0 pbc="F F F"
O       13.49247900      11.21970700      11.65896000      -0.41802916       1.91668283       1.85826516
H       13.57537700      10.99633000      10.76081000       0.58260760      -0.80317227      -2.29820444
H       13.51652300      10.40629500      12.12606800       0.05029916      -1.39320789       0.63499537
O       12.46920400      13.47222100       9.62081300      -0.51858476       0.04957555      -0.40066871
H       12.09997300      12.95003000      10.37646200      -0.11040056       0.83543442      -0.41241326
H       11.73504700      14.03134100       9.28652900       0.49102001      -0.62768459       0.50451913
O        9.82720100      14.59671700      12.58294000      -2.37288383       0.96078517       1.76136896
H       10.37792900      13.82009300      12.62240500       0.30304335      -0.75573382       0.02015802
H        9.12685100      14.51069600      13.31654400       1.83825457       0.11101587      -1.76468800
O       13.33422700      11.79920000       7.20814100       1.14548774       0.22340019      -1.21254417
H       12.93684800      12.17237200       7.97850800      -0.79591754       0.86859821       1.18704222
H       13.93439600      12.51837000       6.91140300      -0.52472209      -0.74673789       0.15174832
O       12.05541400       8.47599000      11.90285900       0.70763963       2.06730655       0.95071576
H       11.34976200       9.07914900      11.61568200       0.09502952      -0.25709522       0.22906356
H       11.82851300       7.65801900      11.54059400      -0.39965508      -2.06557168      -0.81848283
O       14.25401600      15.78367800      10.69017900      -0.88904008      -0.88599049      -1.82377529
H       13.53753300      15.22577000      10.25285800       1.35310819       0.82269728       1.15617890
H       14.02743500      15.87167200      11.60473000      -0.40944014      -0.06753821       0.70559298
O       11.12873700      12.41958300      11.82871300       1.26202855       1.48553158       0.63786986
H       10.51939600      11.82092600      11.45496900      -0.95385692      -1.45522953      -0.45099940
H       12.00000000      12.00000000      12.00000000      -0.20910670      -0.52043261      -0.10558678
O       14.47291800      10.24168200       9.24640800       2.58602774       2.19345491       0.07558638
H       14.08542000      10.70863200       8.48049700      -0.05652530      -0.37946256      -0.20775184
H       15.34123600      10.81580100       9.33793300      -2.43194269      -1.91600787       0.00725180
O       10.00552900       9.81998800      10.80461900      -1.04477587      -0.73865706      -1.33315195
H        9.27095700       9.18751200      10.60230100       0.61848056       0.79871315       0.66512994
H       10.44390400       9.83305700       9.93571700       0.10185405       0.27932585       0.28278044
27
Properties=species:S:1:pos:R:3:REF_forces:R:3 REF_energy=-18719.17513049829 charge=0 spin=1 external_field="0.0 0.0 0.0" config_type=ORCA_DFT source_file=C_DFTprod_cutcluster_0066.out orca_step=0 pbc="F F F"
O       10.78232200      15.42552500      14.21571400       0.25437417       0.56903623      -0.79956445
H       11.49698500      14.89002100      14.62567500      -0.25853791       0.33043923      -0.77123325
H       11.04449600      15.75437500      13.31820500       0.04728357      -0.71394979       1.53042726
O       12.63960600      13.47415100      15.18943400       0.07111384      -0.82706718       0.43781961
H       12.40704600      13.06679700      16.05216500       0.23576334       0.27380194      -1.07337950
H       12.73560900      12.77224700      14.49616900      -0.36256517       0.77020913       0.78491595
O        9.75448500      12.83033000      13.18937100       0.19291513      -0.88348171       0.48385918
H       10.73357700      12.83351000      13.21357500      -1.05203708       0.61745330      -0.16284608
H        9.39912100      13.48546400      12.58217500       0.69313532       0.27830122      -0.08601019
O        9.26848600      10.43656500      11.83307200       0.47861264      -2.69870264      -1.21660199
H       10.00094500       9.92111900      12.21971400      -0.53689323       0.61175136      -0.28337025
H        9.18154500      11.20537000      12.34108300       0.02973013       2.05691251       1.48965383
O        9.78785000      14.16165500      10.50415400       0.78287146       3.03184153      -1.44698894
H        9.02006200      14.39307700       9.96506900      -0.77507890      -1.00946166       0.19500698
H       10.24948300      15.01781100      10.19116500      -0.02119345      -1.99051726       1.27021890
O       12.64949200      12.23002300      12.71437900      -0.00522145      -0.91825727      -0.51935187
H       12.00000000      12.00000000      12.00000000       0.99889684      -0.10043239       0.74439854
H       13.26221900      11.46529400      12.83446100      -0.91085944       0.63901329      -0.59492529
O       13.25167800       8.74523900      12.79601000      -0.24570081      -0.61104637      -2.16189518
H       14.08254400       8.30095300      12.72210300       0.71424593      -0.45662929      -0.25455101
H       13.23138400       9.14750900      13.62529100      -0.34473534       1.02728507       2.31899783
O       12.63930000       9.64221500      15.22622600      -0.98490253       0.80184836      -1.25933727
H       12.17982200      10.18125100      15.84731700      -1.27903275       1.14545858       0.15297931
H       13.20337000       9.25249000      15.83390100       2.25667222      -1.83239816       1.48443681
O       11.53265900       8.82683600      10.68099500      -1.59319612      -0.91089744       1.52235760
H       10.57596300       8.47786000      10.77202700       2.47151336       0.88654842      -0.14445467
H       11.98350900       8.74394500      11.58218100      -0.85717372      -0.08705900      -1.64056186
27
Properties=species:S:1:pos:R:3:REF_forces:R:3 REF_energy=-18719.593898607236 charge=0 spin=1 external_field="0.0 0.0 0.0" config_type=ORCA_DFT source_file=C_DFTprod_cutcluster_0067.out orca_step=0 pbc="F F F"
O       12.31136000      12.29031300      14.71789900      -1.18664853      -1.15799266      -0.30136684
H       13.27023400      12.32741300      14.60130200       0.18128320       0.71483523       0.32863982
H       11.86189400      13.12051200      14.90623900       0.91673672       0.28267230       0.15381045
O       11.52378800      14.95802300      12.14954800       0.28692012       1.88665708      -0.11995174
H       12.34976200      15.30786500      11.77056600      -0.50887092      -0.25292412       0.31965762
H       11.51160600      14.04863400      11.92528900       0.10902178      -1.99700945      -0.49378040
O       10.28325000       9.70260200      12.32269900      -0.65820822      -2.13273301       1.43763671
H       10.85960000       8.91274100      12.46414100      -0.24445434       0.97111654      -0.52823411
H        9.51298400       9.38304500      12.87520000       0.86975927       1.01834909      -0.95717396
O       13.88306900       9.32609100      13.98821300       2.06380183      -2.84578878       1.29107009
H       13.81060900       8.37255400      14.31799900       0.66092027       1.86343096      -0.61680821
H       12.99924900       9.50839400      13.83858700      -2.95906989       1.31950839      -0.35470716
O       14.97505600      12.07757900      14.39964000       2.15098152      -2.17893049      -0.60701776
H       15.76284200      12.51432200      14.76257000      -0.53216790       0.16194110      -0.06755646
H       15.38660000      11.18483800      14.09470300      -1.52053371       2.04667607       0.54646493
O       12.00000000      12.00000000      12.00000000       0.61633893       0.97605969      -0.24715806
H       11.43966600      11.37240000      11.56206900      -0.50153577      -0.53169065      -0.01218153
H       11.93524800      11.87223500      12.96201000      -0.09794248       0.01041801       0.27511644
O       15.01697700      11.69059800      11.23449400      -0.13589767       0.33225510      -0.94497921
H       14.28576900      12.29401100      11.53910300       0.82163912      -1.02171148      -1.08997726
H       15.11525300      11.63773100      10.23609900      -0.73182729       0.53705819       2.08615516
O       11.76406400      15.18219400      14.85005500      -1.49997949      -2.40922592      -1.23245171
H       11.36773500      14.90972600      13.94265900       1.20510797       1.19298481       1.71743112
H       12.02482500      16.07396000      14.76230200       0.35586647       1.43898823      -0.27862739
O       14.93981800       8.11518700      11.90158900      -0.66540109      -0.95230465      -1.86753645
H       14.28268700       8.77566200      12.19847200       0.56105496      -0.33035932      -0.36729708
H       14.65929100       7.73403500      11.01000300       0.44310519       1.05771978       1.93082298
27
Properties=species:S:1:pos:R:3:REF_forces:R:3 REF_energy=-18719.656244229107 charge=0 spin=1 external_field="0.0 0.0 0.0" config_type=ORCA_DFT source_file=C_DFTprod_cutcluster_0068.out orca_step=0 pbc="F F F"
O       13.27852100       9.90755300      13.06149700      -0.73212266      -0.92515991       1.17917078
H       13.09419600       9.35383500      12.28431300       0.30806811      -0.23055804       0.38485833
H       12.80444900       9.49081700      13.83674100       0.65206775       0.58747110      -1.40392486
O        9.77087600      13.88118500      14.82774600      -2.66749494       0.91421637       2.02507418
H        9.95477700      12.91930200      14.81601300      -0.44357292       0.21916044      -0.00105410
H        8.93164300      14.05283400      15.42950400       2.79030730      -0.73456212      -2.00127543
O       13.71188300      12.35917000       9.82058400      -0.66692755      -0.78672544       0.41140718
H       13.86988300      13.06474800       9.23470500      -0.36650569       2.05813641      -1.00223856
H       14.48446500      11.86537700       9.61968800       1.25919283      -1.25052348       0.33021303
O       12.55683400       9.67396600       9.53106900       0.43885819       0.85095412       0.12989101
H       12.88532500      10.41294000       8.98288900      -0.47947283      -0.35267017       0.31314702
H       12.37484300       8.94917100       8.94088000      -0.11490266      -0.39971951      -0.41709482
O       12.00000000      12.00000000      12.00000000       0.98409166      -1.56079009      -0.52411865
H       12.35520900      12.12449000      11.09522600      -0.45727371       0.31613875       0.56609129
H       12.50257300      11.17271100      12.27728600      -0.75554531       1.37370442       0.03190765
O       11.83499000      14.59627600      12.84784400       0.15943535      -0.76314610       0.23609208
H       11.05518000      14.47253200      13.40696500      -0.14639461       0.44860622       0.09603704
H       12.14389200      13.66654200      12.79063900      -0.04678333       0.74192489      -0.32677721
O       14.91323200       8.78100400      10.75219500      -1.81478116      -1.20417302      -0.71882784
H       14.14978000       9.25478800      10.35247700       0.58793261      -0.27932678       0.15801096
H       15.56097900       9.39603800      11.00201400       1.24573382       1.40767790       0.54659611
O       15.90265100      11.26354500      13.83639900      -1.67050118      -0.35855018      -0.36195402
H       14.90937100      11.06141200      13.67692100       2.80004556      -0.14065015       0.17841658
H       16.46806500      10.48488300      13.66120400      -1.07432798       0.42046163       0.10524143
O       10.60455600      11.45102500      14.30344400      -0.07536922      -0.61435481       0.47861403
H       11.43667600      11.58527900      14.77681800      -0.04273225       0.02242084      -0.46215650
H       10.76304400      11.55897000      13.35163300       0.32897489       0.24003677       0.04865325
27
Properties=species:S:1:pos:R:3:REF_forces:R:3 REF_energy=-18719.32093843248 charge=0 spin=1 external_field="0.0 0.0 0.0" config_type=ORCA_DFT source_file=C_DFTprod_cutcluster_0069.out orca_step=0 pbc="F F F"
O       12.34558600      13.63698100       9.62400000      -0.16929286       0.10462565       2.60823333
H       12.67282200      13.84728500       8.78250500       0.63907921       0.40410787      -2.01927156
H       12.69379400      14.32893800      10.22142900      -0.46555508      -0.27865089      -0.49734127
O       15.37472900      12.98626500      10.27324500       0.33291562       1.25561349       0.12569420
H       15.80307100      13.87729400      10.24227000      -0.52279628      -1.13263901      -0.03537283
H       14.42043200      13.15958300      10.25189900       0.25359235      -0.18104460      -0.14215620
O       11.25432400       9.30243200      12.19204900       0.21627983      -3.19724482       0.12814986
H       11.32114100      10.21437800      12.23881800       0.13744609       2.86189067      -0.03381839
H       12.17653200       8.94481400      12.28774300      -1.27150229       0.26255855      -0.17516398
O       11.12148600      14.44422400      13.05186600       0.03996508       0.41913577      -0.29677783
H       10.85593200      15.07874800      12.38151700      -0.10841937      -0.20536899       0.01314569
H       11.34547300      13.59003500      12.65064900       0.02232242      -0.25032427      -0.15950596
O       11.39925200      14.00368400      15.58199500      -0.17437300       0.07934708      -0.20264604
H       11.08212300      14.25560800      14.64112500      -0.12222033      -0.30800970       2.48166891
H       10.77955500      13.97368100      16.34981100       0.32638023       0.23210898      -1.78254236
O       12.00000000      12.00000000      12.00000000      -0.88027154       0.34793796       0.21489673
H       12.04333700      12.36472100      11.11010200       0.35379354      -0.36238108      -0.27625498
H       12.87471500      11.77655400      12.33162300       0.58546219       0.33925297      -0.00350806
O       13.64622500       8.28973400      12.50209200       0.82805196      -0.05934688      -0.09038945
H       14.07579600       7.91401600      11.69970600      -0.13079964       0.90741740       0.98380262
H       14.06986400       9.11252800      12.83318200       0.07174767      -1.05203970      -0.72633279
O        9.92205900      10.51123600      15.16737500       0.11452270      -2.26334743       0.78327846
H        9.98948800      11.29470100      14.65910400       0.40620507       0.88347816      -1.00913333
H       10.32201100       9.74274000      14.68945400      -0.48349732       1.37565944       0.15751217
O       14.64751700      12.15851900      13.14942700      -0.90129236       2.03361080       0.03006715
H       14.85773900      13.07420900      12.80906600      -0.23550880      -1.65237480       0.54138484
H       15.32043600      11.60233800      12.80534100       1.13776486      -0.56397260      -0.61761893
27
Properties=species:S:1:pos:R:3:REF_forces:R:3 REF_energy=-18720.385437009878 charge=0 spin=1 external_field="0.0 0.0 0.0" config_type=ORCA_DFT source_file=C_DFTprod_cutcluster_0070.out orca_step=0 pbc="F F F"
O       13.69451100       9.60970700      10.36111800       0.47388248      -1.57738456       0.45153043
H       12.97022300       9.80725200       9.73686900      -0.17674937      -0.75499123       0.28282204
H       13.81690400       8.63058400      10.58120800      -0.84936230       2.09917101      -0.99876752
O       10.87067700      10.18301100       9.42575800       0.06277493       1.44155584       0.80588386
H       10.65143900      11.03655800       8.99685000       0.15351158      -0.81533035      -0.09432838
H       10.85893300      10.50730500      10.36747500       0.07364180      -0.50824435      -0.52090338
O       15.46408100      11.23644600      11.38106200       0.63227617       1.26015838       0.54160626
H       16.13256800      10.63961200      11.69048600       0.51703037      -0.30827149       0.22209515
H       14.91732900      10.75108000      10.77225200      -0.65299829      -0.72178759      -0.61827713
O       13.32504200       9.86070500      13.38624700       0.76439314      -0.21217804      -1.24859459
H       13.36759500      10.06740000      12.43391400      -0.98196212       0.43400996       0.07518348
H       14.17691300       9.40957900      13.34425200       0.16678465      -0.23472739       1.13841720
O       11.11561100      11.67864900      11.97993800      -1.76105333      -1.51160694       1.02849472
H       12.00000000      12.00000000      12.00000000       1.40741977       0.71491570      -0.02416781
H       11.00659700      11.24291500      12.88154200       0.23729325       0.86325690      -1.15119492
O        9.71386400      14.32995100      12.43079400      -1.61321648       1.29213452       0.73290057
H        8.78017800      14.06301600      12.52891700       0.67084555       0.29694063      -0.03841671
H       10.11951000      13.57286500      12.06534200       0.99250668      -1.69506972      -0.61382573
O       11.43288300      11.61017600      14.87428500       0.81323649       1.70222253       0.20626589
H       10.92908000      12.42489300      15.10658700       0.33306165      -0.91006286      -0.26787889
H       12.37623300      11.96715800      14.87968400      -1.34872729      -0.88979567       0.18729208
O       13.57545000      13.04472800      11.92313000       1.71284350       1.46570534      -0.23701778
H       14.48810600      12.63441400      11.86187300      -1.08424981       0.03711794      -0.17106620
H       13.74616000      14.00625300      11.70498000      -0.57431173      -1.57856392       0.39074780
O       14.13685700      12.60673400      14.78772500      -0.88900156      -1.31844648       0.56074988
H       14.75668400      13.25257000      15.07319800       0.60165027       0.91240518      -0.09196523
H       13.93148500      12.66143000      13.85393300       0.31848010       0.51686659      -0.54758511
27
Properties=species:S:1:pos:R:3:REF_forces:R:3 REF_energy=-18720.243947499275 charge=0 spin=1 external_field="0.0 0.0 0.0" config_type=ORCA_DFT source_file=C_DFTprod_cutcluster_0071.out orca_step=0 pbc="F F F"
O        9.20788800      15.08401500      11.36234200       1.36389983      -0.26055757      -0.20057023
H        9.92552600      14.56527700      10.89197200      -1.11253478       0.47684146       0.47137087
H        8.35717700      14.79182700      11.03911800      -0.07475622      -0.23305139      -0.28090106
O       13.55221900      14.93385600      12.47504000       2.08368839      -1.94673101      -1.63013290
H       13.47442000      14.06095400      12.88166000      -0.21400332       0.48687148       0.25167343
H       12.91730200      15.51787500      12.80691700      -1.95576541       1.34174731       1.22032710
O       11.32243900      13.40127200      14.28323800      -0.35488811      -2.45369469      -2.07307817
H       11.14264400      12.76057200      14.95799000      -0.04676549      -0.46909678       0.68620902
H       11.51748100      14.19648200      14.68512500       0.49423759       2.84261063       1.32908287
O        8.21547500      11.72384400      10.14637600      -0.11504942       0.00771691       0.36884056
H        8.53944400      11.71736400      11.06897500       0.14019450      -0.02165661      -0.26085114
H        7.40862500      11.19728800      10.18098400       0.13354995       0.02047272      -0.10216480
O       10.29274700       9.04224400      12.26495000      -0.07931083      -0.12905648      -0.31226241
H       10.80807700       9.91101200      12.27374200      -0.88721932      -1.69989331      -1.07381093
H       10.15048900       8.62207000      11.37302000       0.68626811       1.40664545       1.39270606
O       11.75522300      11.15587700      11.57604600       1.01684819       0.65261782       1.23426886
H       11.34799800      11.47147700      10.78613600      -0.65387277       0.25263667      -1.06230797
H       12.00000000      12.00000000      12.00000000      -0.11049404      -0.60451510      -0.11856391
O       11.21169200      16.23385100      13.26598100       1.29799479       0.64267284       1.21981515
H       10.62847100      15.77115700      12.68276900      -1.30086944      -0.02108325      -0.70863131
H       10.91251800      17.13448900      13.46445600      -0.20180400      -0.64407893      -0.45983839
O       11.60957800      13.82425300      10.44798800       2.31782916       1.48121619      -0.37100348
H       11.87328800      13.98031500       9.51200200      -0.65958227      -0.39192835       0.63764088
H       12.40787700      14.29398600      10.88671000      -1.58510934      -0.86767915      -0.17264085
O        9.11491900      12.31222400      12.77621800       0.77239010      -0.77471293       0.20019768
H        8.47654700      13.00968800      12.77337100      -0.38398251       0.85689794       0.14545256
H        9.92760500      12.68214900      13.17490500      -0.57089329       0.04878823      -0.33082762
27
Properties=species:S:1:pos:R:3:REF_forces:R:3 REF_energy=-18719.838161029274 charge=0 spin=1 external_field="0.0 0.0 0.0" config_type=ORCA_DFT source_file=C_DFTprod_cutcluster_0072.out orca_step=0 pbc="F F F"
O        8.39354400      12.29601300      13.67413100      -0.33933885       1.37006343      -1.18054381
H        8.27747900      12.94537300      12.93620600       0.26909358      -0.99568862       0.85987693
H        7.68534300      12.55147500      14.26965700      -0.09686868      -0.19988400       0.40944230
O       13.32103000       9.18039100      15.60077300       1.05732856       0.28726470       1.48708052
H       12.83927900       9.39045400      14.80794300      -0.52470548       0.25607855      -0.70805034
H       13.71220000       9.98366100      15.99885500      -0.47322402      -0.72846799      -0.57860979
O       10.68605700      10.24109600       9.84601900      -0.13023662      -0.30798018       0.45813940
H       10.27632200      10.51012600       9.02371700       0.01955766       0.10591835      -0.07655213
H       11.01215400      11.05748600      10.31408600      -0.28211864      -0.39147224      -0.56721831
O       11.57373700      12.26834200      11.09335200       1.42351611      -0.16172358       2.83570537
H       12.00000000      12.00000000      12.00000000      -1.10049785       0.88016375      -2.58431728
H       11.14492500      13.13212900      11.27878200       0.22848506      -0.55509926       0.03865479
O        9.23675400       9.91733900      12.79363000      -0.60307245       0.87052983       0.36168030
H        9.39830000       9.84620300      11.83975700      -0.39791660       0.53747568      -0.02872452
H        8.80321800      10.80882300      13.06486200       1.08434140      -1.82181663      -0.84951080
O       10.46485400      14.53656000      11.89095900      -0.66452470      -0.88963976       0.57460890
H        9.50562900      14.55746200      12.00630100       0.35108586       0.38044287      -0.26553677
H       10.75703700      15.29335700      11.41622500       0.06567961       1.14604279      -0.71223240
O       12.61610900      12.28222300      14.08812000       0.49189336      -2.20661176       1.10675237
H       12.30404900      11.34846400      13.88958900       0.08683855       1.08055421       0.04987869
H       13.13606400      12.08162300      14.91841400      -0.72170953       0.79536326      -1.29952079
O       11.05750400      14.60321800      14.58465600       1.08967057      -1.84861169       1.64494081
H       10.76944300      15.08474400      13.84964300      -0.41318418       0.85077034      -1.60298694
H       11.51818100      13.79275700      14.23254200      -0.60200755       1.03249926       0.47632739
O       11.79825000       9.37183400      13.31206100      -1.44543487       0.44987917      -0.54753693
H       10.79340000       9.44598700      13.07929700       1.50743481       0.15978631       0.80341344
H       12.22116300       9.09067600      12.49694300       0.11991472      -0.09583680      -0.10516049
27
Properties=species:S:1:pos:R:3:REF_forces:R:3 REF_energy=-18719.879404940588 charge=0 spin=1 external_field="0.0 0.0 0.0" config_type=ORCA_DFT source_file=C_DFTprod_cutcluster_0073.out orca_step=0 pbc="F F F"
O       12.00000000      12.00000000      12.00000000       0.75913894       1.18082874       0.94950302
H       12.67068100      12.06287700      12.72439900       0.04401307      -0.86942132      -0.48680818
H       11.62190400      12.89174100      12.21575700      -0.32801643      -0.18903420      -1.06633035
O       12.97528100      12.41129300       9.30722300      -1.49309957       0.13839591       0.88151888
H       13.04229300      11.98982800      10.18139900      -0.17252407       0.20206111       0.14747638
H       13.74282900      12.19716700       8.83023300       1.62241275      -0.44550068      -0.99055747
O       12.18648700       9.54872800      13.94624000       0.00140655       0.26080661      -0.18675595
H       12.03162300       9.61270300      12.96694000       0.13405568      -0.17065323       1.25080445
H       11.76918700      10.30096200      14.38692700      -0.01731144      -0.33591481      -0.40600288
O        9.62882100      11.04358400      12.86161000       0.09924706      -0.44079181      -0.79070854
H        9.12790400      10.41942500      12.28068400       0.96906073       0.88288835       0.67084349
H       10.54401800      11.19501500      12.48032600      -1.36622976      -0.40188531       0.16013490
O       10.78783800      10.58210600       9.43165300      -0.25758198      -1.03446086      -0.64571667
H       11.00753800      10.34364900       8.52250200      -0.31930111      -0.65701785       0.00739969
H       11.16079400      11.44660100       9.40024800       0.42048215       1.45663752       0.66323308
O       10.88705700      14.51328500      12.58931700       0.40196146      -0.02163460      -0.54101866
H       10.49231100      14.27247400      13.42044300      -0.31662140       0.17971874       0.62994084
H       11.56204400      15.19392400      12.72894100      -0.22322062      -0.25719755      -0.02155289
O       12.35343200       8.95829800      11.41060900       1.69989542       0.25883174      -0.33844873
H       11.66243400       9.28431900      10.85636600      -1.27647615       0.39172503      -0.86482321
H       13.10654300       9.48611600      11.06254300      -0.49544267      -0.68009340       0.57204129
O       13.39453500      12.52669100      14.32200600       1.65248093      -0.88000167      -0.90712465
H       14.22503100      12.94996700      14.58857400      -0.67637260       0.01893150       0.07224158
H       12.64950700      12.93113400      14.70973800      -0.92922791       0.99982496       1.03026024
O       12.94722100      14.88531900      10.41692900      -0.14018375      -1.82771762      -0.95323755
H       12.83766100      15.53574700       9.73332500      -0.06134725       0.81762958      -0.25565432
H       12.85584900      14.03218600       9.86005900       0.26880191       1.42304508       1.41934223
27
Properties=species:S:1:pos:R:3:REF_forces:R:3 REF_energy=-18719.793303359173 charge=0 spin=1 external_field="0.0 0.0 0.0" config_type=ORCA_DFT source_file=C_DFTprod_cutcluster_0074.out orca_step=0 pbc="F F F"
O       10.39795100      13.48634200       8.51022100       0.64182607      -0.21907806       1.22600806
H       10.99853300      13.94079100       7.92157400       0.23198711       0.08774410      -0.38271804
H       10.92355000      13.35570200       9.33791200      -0.52420704      -0.09775469      -0.66566257
O       11.79203400      13.85574400      11.60338000      -0.02541911       0.30625363      -0.16855264
H       12.26823400      14.63644000      11.26505100      -0.19990483      -0.07821039       0.20115258
H       11.09473200      14.23346400      12.16277800       0.13878075      -0.27602301      -0.14392132
O        8.27124100      12.25470600      11.93035800       0.04004247      -1.37165973      -0.84047286
H        8.92268400      12.45628600      12.57705300       1.07203337       0.09331203       1.33128245
H        7.78171600      13.04289600      11.83584400      -0.94136167       1.37995015      -0.35354018
O        8.68402000      15.46213800       9.46527900       2.34802831      -2.02452489      -0.66312376
H        9.50303800      14.81320600       9.33259900      -2.34201568       1.89441204       0.54966729
H        8.17940700      15.11994600       8.71537300      -0.35391675       0.29801181       0.15922504
O       10.29179900      12.28478700      14.47729500       1.52483820      -0.96213002      -0.99489029
H       10.95986900      12.76184800      15.01414800      -0.77302588      -0.36959631      -0.37539965
H       10.82803500      11.63640600      13.87380800      -1.16835719       1.54631149       1.33217941
O        9.28406100       9.81885400      11.05983700       0.60439754       0.52896929       0.83387644
H        9.06535900      10.77138900      10.98266400      -0.26790424      -0.73612376      -0.15279949
H        9.11174200       9.34430400      10.25845800      -0.28155232       0.09362035      -0.69805400
O       11.51143500      14.49810900      16.07835600      -0.73156740       0.65864140       0.70244261
H       12.26420100      14.62642700      15.50553300       0.27106351       0.46254391      -0.09983569
H       11.18666500      15.37498500      16.39582000       0.61905109      -1.08554688      -0.60680322
O       11.70452900      11.19273400      12.48564800       0.72175695       0.41954647      -0.76708113
H       12.00000000      12.00000000      12.00000000      -0.38675992      -0.60714446       0.52283906
H       11.60642300      10.49801000      11.82319600      -0.30368356      -0.01669860       0.13510310
O       12.26862000      16.38186900      10.49826800       0.58198827       1.11721748       2.54309180
H       12.29254400      16.15717600       9.59437500       0.33646795       0.23886625      -1.70732252
H       12.84204100      17.16134300      10.72662100      -0.83258600      -1.28090950      -0.91669049
27
Properties=species:S:1:pos:R:3:REF_forces:R:3 REF_energy=-18719.485152660076 charge=0 spin=1 external_field="0.0 0.0 0.0" config_type=ORCA_DFT source_file=C_DFTprod_cutcluster_0075.out orca_step=0 pbc="F F F"
O       10.43959500      14.21787500      10.02517500       0.18307655       0.04810473       1.18113285
H        9.94566400      14.51872200      10.85581000       0.68354207      -0.50301683      -1.24903332
H       11.36128800      14.12424900      10.35761500      -0.93690163       0.19827974      -0.72193996
O       13.16493800      14.41118800       9.76593200      -0.43171273      -0.41727100       0.30210022
H       13.92754400      14.05748500      10.21420300       0.51712761       0.09876246       0.01995233
H       13.42832100      15.10120700       9.16525700       0.27880315       0.27364490      -0.21194896
O        9.70507600      15.00951000      12.36784500       0.33814678      -0.64906183       2.02026333
H       10.54521500      15.43610500      12.57226000      -0.10583973       0.41542998      -0.36111949
H        9.72940100      14.26896400      13.10369300      -0.64312762       0.95810845      -1.52034540
O       13.71485600       9.99499800      14.11298700       0.64375116      -1.57019236      -2.01248991
H       13.12758000      10.16451500      13.34169100      -0.24791700       0.61953836       0.60671689
H       14.23176500       9.26754700      13.65034500      -0.47225219       1.12823527       1.41340339
O        9.77293800      13.18229300      14.14073200       0.61756602      -1.74636452       0.36883408
H        9.67745800      12.21627500      13.90360600       0.18838587       1.60293973       0.25932241
H       10.68017900      13.24060400      14.53654300      -0.64443960      -0.47894956      -0.00058092
O       11.91993800      10.95229100      12.01779800       0.22397755       3.48199246      -0.30359398
H       11.90401700      10.76642000      11.06496800       0.14523119      -0.21864858       0.13028007
H       12.00000000      12.00000000      12.00000000      -0.31660479      -3.24805507       0.25042588
O       12.29290500      12.77904000      15.33666600       1.59676898       1.19926103      -1.12423397
H       12.63620200      11.94431200      15.66605100       0.01448267      -0.21689298      -0.09699379
H       13.05439100      13.18380600      14.78990100      -1.60070210      -0.94335016       1.00760527
O       13.84004000      14.22257600      13.33482800      -4.41961256       0.74597175       0.15852220
H       14.74221000      14.16425700      13.33886600       3.62813696       0.22834457       0.12732032
H       13.52776000      15.13936100      13.51469200       0.83760891      -0.99047658      -0.24832349
O       13.26796800      10.17295600       9.44943600       1.35398278      -0.34703082      -1.37824474
H       13.10252900       9.62974100       8.63318100       0.20342261       0.83421819       1.19353400
H       14.21342200      10.47915200       9.34339700      -1.63490101      -0.50352138       0.18943468
27
Properties=species:S:1:pos:R:3:REF_forces:R:3 REF_energy=-18720.06317373479 charge=0 spin=1 external_field="0.0 0.0 0.0" config_type=ORCA_DFT source_file=C_DFTprod_cutcluster_0076.out orca_step=0 pbc="F F F"
O       10.79530800      14.55923000      12.28415800      -0.38965046       0.11871355       0.04780036
H       11.42490100      15.07830400      11.77907800       0.10391124      -0.18503886       0.02872534
H       11.06255600      13.62926300      12.25069500       0.25069466      -0.00485851      -0.22977416
O       11.95465400       8.48434900      14.68758000       1.11752277      -0.91104605       0.68357097
H       11.44753900       9.24780000      14.98904500       0.47290016      -0.30117632       0.42383189
H       12.61744200       8.16978700      15.38160700      -1.56003897       1.23708026      -1.23560743
O       14.81131500      12.62684200      11.99085800      -0.03697499       0.08360611      -0.94743816
H       14.94071900      13.38316600      11.34998300      -0.07835144      -1.70864478       0.85855985
H       14.90085800      11.74119600      11.51604300       0.09696942       1.75880470       0.06450076
O       12.75768000      12.30612600      15.06656800      -1.05450600      -1.06345838       0.67163179
H       12.01543500      11.80854700      15.49480200       0.92756811       0.87687264      -0.34118171
H       12.55917300      12.18826900      14.13201800      -0.06590540       0.23088889      -0.53025309
O        9.95823200      15.33270300      14.83225000       1.23690548      -1.17230116      -0.50269519
H       10.18882600      15.05614900      13.91139300      -0.00429194       0.22974835       0.72646021
H        9.24248000      15.92195900      14.72581000      -1.23918188       1.00513131      -0.10300581
O       12.00000000      12.00000000      12.00000000       2.04493420       0.50652541      -0.13717561
H       12.00782600      11.07293000      11.77466200      -0.70913499      -0.83706219      -0.14995348
H       12.97732000      12.17566700      11.80311900      -1.30572126       0.55418333       0.62541220
O       14.66217200      10.68191800      10.14590800       0.69924776      -0.96822631      -0.43228619
H       15.39600700      10.07907200       9.94216600       0.08935309       0.54651080       0.04728295
H       13.91961700      10.06061800      10.11985500      -0.55147472       0.28228889       0.31431733
O       14.88473900      10.46331300      15.34980000       0.40806994      -0.53231620      -0.20296470
H       15.41878900      10.39481900      14.54442800      -0.33051271       0.17906825       0.33919939
H       14.11879900      11.01573900      15.13620500       0.07212063       0.34824957      -0.02826368
O       12.27661100       9.45839400      10.72598200       0.64293360      -0.21921654       0.64759275
H       11.72755800       9.40728600       9.94119700      -0.25249140      -0.62316197       0.11904039
H       12.39182300       8.61006100      11.20453700      -0.58489495       0.56883517      -0.75732698
27
Properties=species:S:1:pos:R:3:REF_forces:R:3 REF_energy=-18720.35908659891 charge=0 spin=1 external_field="0.0 0.0 0.0" config_type=ORCA_DFT source_file=C_DFTprod_cutcluster_0077.out orca_step=0 pbc="F F F"
O       14.80903400      11.19932500       9.26429400      -0.70853212      -0.29045410      -0.40763419
H       14.22640400      10.59356500       8.74958800       0.54663524       0.67390568       0.54060451
H       14.42730600      12.09130000       9.16698500       0.00995742      -0.52266911       0.08095736
O       11.20452100       8.69596100       9.15474600      -0.89563234       1.22834201      -0.92851227
H       11.49833200       8.26023400       9.93195900       0.57239430      -0.63214962       1.17746162
H       10.63738800       9.42895200       9.50037100       0.54068298      -0.59105696      -0.47133822
O       12.02467900       8.22533500      12.00416400      -1.30176279      -1.18615786       1.04092143
H       12.76200500       8.52825400      12.54928400      -0.07853867      -0.20812809       0.03934683
H       11.47607600       7.58068900      12.55889100       1.39997724       1.44859259      -1.03920192
O       14.73299800      10.67206200      12.24368700       0.45857207       0.71088462      -0.77216209
H       14.58412400      10.83931500      11.28444400       0.18809688      -0.35497080       0.33054264
H       15.57541200      11.15603000      12.38362100      -0.79459060      -0.48137045       0.21817118
O       13.67443200      13.61275200      10.41751800      -0.63217261       0.43217280      -0.80936236
H       14.49123400      14.05742700      10.61486500       0.75142871       0.10676373       0.50863706
H       13.17479600      14.31748300       9.97072700      -0.12925965      -0.37870476       0.20649498
O       11.23605600      14.70475000      12.68461400      -0.23706576      -0.61827040       0.80363347
H       11.06436800      15.01113100      13.60241000       0.03516524      -0.47482036      -0.97068721
H       11.10740000      13.72151400      12.68409900       0.20813200       1.10564150       0.19846738
O       12.00000000      12.00000000      12.00000000       0.42121044      -0.29240022       0.15730946
H       12.57811000      12.54005200      11.42825300      -0.01732183      -0.08403800       0.09971392
H       12.58427800      11.26647900      12.28363700      -0.34296503       0.39778543      -0.16799070
O        9.77543700      10.72670200      10.50462300      -0.03299132       1.06651187      -0.30195439
H       10.24358100      11.55612100      10.69679500      -0.15535985       0.03823200      -0.50643655
H       10.08395700      10.26701100      11.26864700       0.12775854      -1.12769802       0.99315917
O       13.82302100      13.34032200      14.16027700       0.47899141       0.83479540       0.69448474
H       13.48618600      14.24724100      14.24684100       0.14591341      -0.49144342      -0.14372385
H       13.25470300      12.93121500      13.51956900      -0.55872328      -0.30929551      -0.57090203
27
Properties=species:S:1:pos:R:3:REF_forces:R:3 REF_energy=-18720.061546325007 charge=0 spin=1 external_field="0.0 0.0 0.0" config_type=ORCA_DFT source_file=C_DFTprod_cutcluster_0078.out orca_step=0 pbc="F F F"
O       14.51191100      10.23736800      10.92572100      -0.67845190      -0.24138315       1.01778643
H       14.64708600       9.31482900      11.18669100       0.19461293       0.32213482      -0.04480564
H       15.11342200      10.49552800      10.24544400       0.58257422      -0.04791318      -0.73474400
O       14.77576000      11.54931100      14.57415500       1.20668632       1.16343538       2.31781070
H       15.17904000      11.82226700      15.48807000      -1.08050603      -0.79296077      -2.58335379
H       15.37558600      11.94602200      13.91853900      -0.20188103      -0.26448215       0.27695226
O       12.10356700      11.48026300      11.18924100      -0.65219328       0.58823369       0.62581149
H       12.00000000      12.00000000      12.00000000      -0.61654575      -0.01061192       0.25155542
H       12.99561300      11.15254400      11.28766500       0.94661665      -0.76748299      -0.47015360
O       13.99899000      13.88587700      10.29868700       0.67470318       0.41144549      -0.06527065
H       14.62201700      13.99131400      11.02289200       0.09195042       0.13538458      -0.05259053
H       13.31800500      13.33781300      10.66926600      -0.77182476      -0.57863185       0.03990949
O       11.51523000       8.34461700      14.31527300      -2.58358236       1.60698001      -1.36855373
H       11.09694000       8.52016900      13.36430000       1.17691078      -0.66166332       2.15687192
H       10.90110900       8.89012500      14.88824400       1.21167190      -0.98142712      -0.79776102
O       11.98078800      12.42841700      13.77479200       2.14511889      -0.54987648       0.12685721
H       12.86988200      12.34866100      14.21836300      -0.84712888      -0.29157392      -0.80403200
H       11.49366300      12.89505200      14.42362300      -1.15914060       0.80992568       0.78842134
O       11.87626400      10.92063000       8.62689100      -0.67720122      -0.54849862       1.11151930
H       11.82165000       9.95198500       8.72363300       0.10744656       0.58056357      -0.33601272
H       11.60261000      11.22191800       9.54037500       0.62821830      -0.10762022      -1.33753265
O       10.78681700       8.71884000      11.72858600       0.31844935       1.96367602      -0.65880312
H       10.92731800       8.03682300      11.06925200       0.09433517       0.05070853      -0.14217405
H       11.08507100       9.61509000      11.34906300      -0.40592256      -1.74174980       0.71367746
O       14.19538600       8.64166200      13.91386800      -0.42081598       0.69768859      -0.27278491
H       13.21172300       8.74252900      13.84879500       0.78057129      -0.36903139       0.45609491
H       14.48134100       9.50373700      14.26199900      -0.06467173      -0.37526961      -0.21469572
27
Properties=species:S:1:pos:R:3:REF_forces:R:3 REF_energy=-18719.455247517424 charge=0 spin=1 external_field="0.0 0.0 0.0" config_type=ORCA_DFT source_file=C_DFTprod_cutcluster_0079.out orca_step=0 pbc="F F F"
O       11.27338400      15.10797500      10.95304700       0.22348689       1.94066681       1.98555745
H       11.21762600      14.92856400      11.95023900       0.24172876       0.17201694      -2.00858209
H       11.48001400      16.09962100      10.92890200      -0.48390926      -2.14102060       0.01024760
O        9.19061900      10.35178200      10.68741200      -1.21326269      -1.64580943      -0.69412879
H        8.75063700       9.51865700      10.33045700       0.93453755       1.48456860       0.82344655
H        8.96462700      11.01189400      10.02268300       0.26139014       0.10926680       0.02408065
O       14.37901100      10.92155300      11.28740400       0.72743327      -0.03259131       2.18675971
H       14.93121600      10.87351900      12.13967200      -1.28860800      -0.00369421      -1.98221728
H       13.44640500      10.98990300      11.61764800       0.83411128       0.24688969      -0.14350207
O       11.60071000      10.78399200       9.04858500       0.10413611       0.44975838       0.64886128
H       11.29078600      11.71605600       9.01535500       0.62319041      -0.90032717       0.37645812
H       12.03429800      10.65459000       9.92899600      -0.56153334       0.59872374      -1.18875879
O       12.00000000      12.00000000      12.00000000       0.88309168       0.09877984      -0.64736073
H       11.21570600      11.68097100      12.41322400      -0.84901093      -0.41768885       0.71333442
H       12.26375200      12.69108800      12.62022000       0.19196603       0.38913238      -0.04338953
O       11.63200200      13.88889600      14.08700700      -1.11190717      -0.60178597       0.12460354
H       12.26982700      14.34380300      14.64230300      -0.17848764      -0.12350089       0.30949245
H       10.91661400      13.45217800      14.62225100       1.28563930       0.79951426      -0.58110756
O        9.61075700      11.41999000      13.28703300       0.20668843      -0.35863776      -1.14681607
H        9.65144700      11.00616700      12.35923800      -0.99858070       0.22493863       1.90062923
H        9.31986700      10.78184700      13.95538900       0.13149533      -0.02182671      -0.70402276
O       14.17652400      14.33445600      11.99800500       0.60839782      -1.26827685      -1.96294326
H       14.35111900      13.44297200      11.57138600      -0.31206741       0.86388255       1.13611936
H       14.20899500      14.83748000      11.15634200      -0.29084378       0.17084329       0.90754565
O       10.63525200       8.14607100      12.08972300      -1.29712473       1.23608257       0.85128661
H        9.98481400       8.36123000      12.83375600       1.42959306      -0.34047934      -1.70782959
H       10.64200400       8.94235200      11.49973100      -0.10155030      -0.92942548       0.81223592
27
Properties=species:S:1:pos:R:3:REF_forces:R:3 REF_energy=-18720.419052446596 charge=0 spin=1 external_field="0.0 0.0 0.0" config_type=ORCA_DFT source_file=C_DFTprod_cutcluster_0080.out orca_step=0 pbc="F F F"
O       11.00353400      10.34110400       9.72048700      -1.01914110       0.16163714       0.67526024
H       11.60418200      10.86005700      10.29495100      -0.52913178      -0.10645422      -0.08338674
H       10.09662500      10.44497800      10.11424400       1.47459149       0.04913317      -0.52296381
O       12.30618100      15.12111400      11.08667400       0.34830732       0.00547614      -0.35515191
H       13.07049200      15.46920600      10.60322800      -0.06761112      -0.05167080       0.42173181
H       11.74888000      14.82949200      10.35369700      -0.35060933      -0.16962824      -0.08739664
O       11.80145400      10.73478700       7.08738900       1.07709870      -0.07376187       0.12243178
H       11.34396600      10.56959700       7.92592700      -0.13476433       0.10270951       0.37814564
H       11.18677900      10.54303300       6.39478400      -0.85924958       0.00111956      -0.49269771
O       13.70192300       9.29952000       5.64543000      -0.99971600      -1.56682015      -0.44819525
H       13.37088100       8.42960000       5.28617600       0.72782213       1.37372165       0.49378719
H       12.99570400       9.54711900       6.27506500       0.48444647       0.16734900      -0.05982762
O       12.65082500      13.41186100       6.36798900       1.09511494      -2.31803042       0.12454497
H       13.61182200      13.28170300       6.18329900      -0.89061868       0.73550294       0.06821713
H       12.45076500      12.42786700       6.54333100      -0.32925406       1.62107645       0.06035233
O       10.83999900      14.39784400       8.45346700      -0.71087835       1.17956242       0.26292535
H       11.58893400      14.51661600       7.84789500      -0.03452694      -0.10325371      -0.22680325
H       10.22306800      15.16537300       8.32449400       0.97760718      -1.06191428       0.03871485
O        9.68467000       6.69379200       9.05491900       0.04628619       1.32084372       0.63117101
H        9.94019400       7.29199400       9.79731600      -0.10931324      -0.84840631      -0.69844372
H        9.31148600       7.33733500       8.43029900       0.10088459      -0.44684974       0.05116295
O       12.00000000      12.00000000      12.00000000      -0.35433481      -1.52415773      -0.24505340
H       12.20550700      12.91672000      12.08577700       0.41682748       1.19098881       0.12553973
H       12.49224500      11.50052800      12.66243700      -0.03394006       0.36692992      -0.07249375
O        9.54715800      12.45262200       6.89296700      -0.28489255      -0.16851212      -0.55546559
H       10.04168200      12.97529700       7.53923500       0.06882134       0.13187364      -0.00401108
H        9.90329000      12.71152300       6.02962300      -0.10982581       0.03153546       0.39790550
27
Properties=species:S:1:pos:R:3:REF_forces:R:3 REF_energy=-18720.062426354456 charge=0 spin=1 external_field="0.0 0.0 0.0" config_type=ORCA_DFT source_file=C_DFTprod_cutcluster_0081.out orca_step=0 pbc="F F F"
O       12.62563500       6.41857300      12.43820000      -0.38783356      -0.78449506       0.54732923
H       11.67265300       6.55298900      12.40594300      -0.25308805       0.65129365      -0.53468095
H       12.61393100       5.58183600      12.92935100       0.60483432       0.19004712      -0.13810347
O       11.69302300       9.97344400      10.00604600       0.57077430      -0.46093342      -1.19390475
H       12.62582500       9.97474800       9.68666800      -0.80946952      -0.38171176       0.18308236
H       11.71939500      10.41592900      10.84454400       0.10811119       0.80828769       0.92490568
O       14.12924100       8.99541800       8.75374300       1.33336484       1.62829564      -0.32413581
H       15.00853900       9.47318200       8.73230600      -1.50773722      -0.96283095       0.04904261
H       14.30435200       8.11419500       9.06628400       0.16159925      -0.52232165       0.30034909
O       15.20655300      13.20910800       7.88208800       0.75756871      -1.07612605       1.67541744
H       14.67298000      13.32953500       8.69061100       0.00841111       0.03758876      -0.67923419
H       14.84962100      13.72146900       7.19093400      -0.78758269       0.94980908      -0.98982589
O       11.35350800      14.29305200       7.37925900      -1.05321588      -0.75163661      -0.60588292
H       10.74886300      13.79375200       6.78134900       0.31542090       0.32304895       1.05088666
H       12.01332800      14.54797400       6.74896800       0.84063376       0.49721457      -0.41562271
O       10.09073400       7.69727800      10.86668900      -0.47444863       0.42891439      -0.04097459
H        9.30200200       8.00858700      10.38959800       0.11410546      -0.39627084       0.12937915
H       10.62542600       8.50404900      10.81786300       0.46921515      -0.23442606      -0.09449319
O       12.88582900      13.70031400       9.81003000       1.35367609       0.48981422       1.68103499
H       13.11722200      14.57896600      10.15083700       0.21765835      -0.40378016       0.52354385
H       12.41826300      13.97596600       9.05520500      -1.64677062      -0.12658642      -2.16995822
O        8.86825800       9.24058700       8.56946900      -1.36088881      -0.76438008      -0.75113951
H        9.80583000       9.38340800       8.61146400       0.96579312       0.03895427      -0.04538609
H        8.68316300       8.60640200       7.83743600       0.49930076       0.78885950       0.89989553
O       12.00000000      12.00000000      12.00000000       1.16180879       0.73708129      -1.71669203
H       11.14716400      12.29022900      12.29510300      -0.67174523       0.30698316       0.18914887
H       12.22959200      12.57748400      11.19347100      -0.52949596      -1.01069312       1.54601890
27
Properties=species:S:1:pos:R:3:REF_forces:R:3 REF_energy=-18719.717194380708 charge=0 spin=1 external_field="0.0 0.0 0.0" config_type=ORCA_DFT source_file=C_DFTprod_cutcluster_0082.out orca_step=0 pbc="F F F"
O       12.98041800       9.04711600      11.08051300       1.11983892      -0.53860969       2.00148739
H       13.01797500       8.67104500      12.02248300      -0.14579488       0.59500865      -1.29357943
H       12.05446100       9.05643800      10.90355000      -1.15233304      -0.14669734      -0.45663474
O       13.89992500      13.57938800       9.72312200       0.21723335       0.54729750       1.25310502
H       14.28719000      14.17860600      10.42701600      -0.71801152      -1.38232492      -1.25283999
H       13.47314500      12.86569600      10.26541400       0.40151923       0.75830220      -0.45067693
O       16.19943200       9.67071500      12.15671700      -0.29326118      -0.38257622       0.68384160
H       16.47725700      10.10181400      11.35913300       0.32420302       0.44024350      -0.61354949
H       15.34090900       9.31064800      11.91694200      -0.15992607      -0.01195023      -0.05809845
O       14.82799000      14.73315400      12.07058900       0.66374468       2.05087782      -0.50339216
H       15.36541900      14.36755300      12.75703400       0.42634170      -0.86300421       0.75155696
H       15.39031000      15.50102900      11.78872200      -0.83195330      -0.84707674       0.15286063
O       12.56579700      16.44101400      13.22646700       0.43647030      -0.56537015       0.93080827
H       12.41989700      16.82096900      12.35939300       0.53891843      -0.20276863      -0.21475264
H       13.41487800      15.93737900      13.28456200      -1.11915645       0.71235540      -0.84528597
O       13.19578300       7.92803700      13.78832400      -1.85863884       1.69087938       2.02116065
H       13.99963400       7.50658300      13.56919000       1.50452077      -0.71298737       0.19322202
H       13.27173500       8.38124700      14.72589000       0.43646223      -1.08779177      -2.73260330
O       10.58370300      13.73375100      11.72320700       0.80089391      -0.35646692      -0.58795179
H       10.27005900      14.31994400      12.39246100      -0.56547341       0.58542167       0.86472536
H       11.44961200      14.12068500      11.51931800      -0.12659774      -0.23838941      -0.23701068
O       14.41576100       9.63630600      15.51989900       1.32808009      -0.72013689       0.82036647
H       14.72080400      10.13135500      14.72774200       0.25257712      -0.68596883       0.81929777
H       15.17796000       9.13293300      15.96767400      -1.49309726       1.51147360      -1.44788903
O       12.83553400      11.85591400      11.55612600       0.50361482      -1.75596774      -0.26356848
H       12.89082100      10.87161900      11.33746700      -0.02683430       1.47895444       0.43874475
H       12.00000000      12.00000000      12.00000000      -0.46334054       0.12727301       0.02665622
27
Properties=species:S:1:pos:R:3:REF_forces:R:3 REF_energy=-18719.15215369847 charge=0 spin=1 external_field="0.0 0.0 0.0" config_type=ORCA_DFT source_file=C_DFTprod_cutcluster_0083.out orca_step=0 pbc="F F F"
O       12.56063500       9.38587000      10.74225700       0.08407657       0.79134540       1.06148994
H       12.88754900       8.74339300      11.40605300      -0.39118217       0.89163684      -0.47178980
H       12.45485600      10.28879500      11.17750200       0.28691235      -1.74787915      -0.68332096
O        9.85378600      13.46606800      12.43247800      -0.22284915      -2.09433276      -1.11019950
H       10.59646700      12.82356900      12.12209600      -1.42240318       1.08760073       0.64698098
H        9.03072500      12.92483500      12.27047400       1.18424306       1.00169678       0.36871211
O       10.33345500      14.36733500      14.92738000      -1.74794081       0.45195626      -1.59187977
H       11.09984200      14.10096700      15.37909300       1.44542689      -0.79021602       0.56132663
H       10.23196700      13.92860700      14.02622400       0.27758002       0.43967204       1.21769867
O       12.00000000      12.00000000      12.00000000      -0.65628215       0.09446244      -1.32911825
H       12.48262300      12.82108700      11.94139300       0.71362568       0.27928893      -0.27169127
H       12.19562900      11.62038200      12.84013800       0.42985310      -0.68068043       1.41288254
O       12.20416800      13.54163900       9.06418100       0.44960123       0.88914524       1.46102161
H       12.32536700      14.23341600       8.42917300      -0.23804720       0.38502797      -1.29865464
H       12.48759600      14.07191600       9.85795800      -0.46128068      -1.18686281      -0.40344350
O       13.74922300      14.22293000      11.17427300      -0.49678926       1.59417515       2.33675001
H       14.46836600      14.43092900      10.56606900       0.10698644       0.21583122       0.42663830
H       13.69605400      14.90609500      11.94345500       0.54122821      -1.54129825      -2.35412085
O        8.73433500       9.78011300      10.61026100       0.11627527       1.68383132       1.80383618
H        9.25723800      10.44457800      10.15650000       0.10183420      -0.29135959      -0.29671674
H        8.54542900       9.07762900      10.03843800      -0.16964171      -1.36143280      -1.48615240
O       13.70983000      11.31281700       8.21844800       1.91750189       1.81103697      -2.42799852
H       14.26153200      11.67319900       7.41207300      -1.55798677      -1.36623208       2.26578987
H       13.41684200      12.16782500       8.59707800      -0.34187324      -0.59536222       0.04774225
O       13.33358000      10.86072900      14.19593000       0.65652564      -1.29730969      -0.04717023
H       13.96554700      11.58585900      14.22640800       0.22354628      -0.18179511       0.07431219
H       13.86765200      10.01941500      14.12465600      -0.82894049       1.51805357       0.08707520
27
Properties=species:S:1:pos:R:3:REF_forces:R:3 REF_energy=-18720.11097740609 charge=0 spin=1 external_field="0.0 0.0 0.0" config_type=ORCA_DFT source_file=C_DFTprod_cutcluster_0084.out orca_step=0 pbc="F F F"
O       13.69970500      14.41781300      11.47240800      -0.70909298      -0.55968750       0.12409914
H       13.74743200      14.87904800      12.30929200      -0.05158297       0.18697660       0.43678243
H       14.41496700      14.73831300      10.94451200       0.67114210       0.24397555      -0.53714411
O       13.32350000      16.28058500      13.80613100      -0.36891708      -0.77324267       0.57137486
H       13.85016000      16.09259500      14.59336200      -0.28211298      -0.11980467       0.22308271
H       13.93796700      16.71115500      13.23763700       0.63354717       0.87853517      -0.79476677
O       13.15746100       9.96219100      16.15883400       0.84576069       1.07384944      -1.08304258
H       13.75240500      10.44173000      16.77885600      -0.47247331      -0.54283438      -0.93651164
H       13.43922200      10.20347400      15.20095800      -0.29930281      -0.57460998       2.16925862
O       11.00936000      14.25029800      13.52235000      -0.49613795       0.79335369      -0.17015860
H       10.07814000      14.54707700      13.53524300       0.65363366      -0.29738760       0.06289119
H       11.51413000      15.06667800      13.33009500      -0.13691048      -0.49965573       0.21646798
O       13.70487400      10.31907600      13.43866500       1.49033970       0.08579114      -1.17246550
H       14.50169800      10.36023600      12.83957600      -1.11922109      -0.16830119       1.16770927
H       13.15091100      11.03849200      13.09091500      -0.40152170       0.00711455      -0.26855509
O       15.18391300      12.95944000      15.92603700       0.24908129       0.36846014      -1.22482386
H       15.23963000      13.35771500      15.01935900      -0.18846743      -0.72757067       1.33153216
H       14.26848900      12.63894400      16.00354400       0.11051075       0.47844109      -0.16200142
O       12.39582900      13.39789300      16.03883500      -0.61982226      -1.27714237       2.19137016
H       11.85980700      12.76614600      16.62198800       1.09643288       1.27547851      -1.47673882
H       12.02405400      13.35047700      15.16715600      -0.68388207      -0.04941666      -0.73051387
O       12.03144200       7.84039100      12.48319400       0.07086609      -0.23601916      -0.06404073
H       12.72526000       8.51256100      12.52786500      -0.33417952       0.13272087       0.10255627
H       11.30410600       8.20592100      11.97034400       0.21965296       0.16236955       0.04708400
O       12.00000000      12.00000000      12.00000000      -1.33571617      -1.58005557       1.24894266
H       12.47289000      12.71477000      11.65156700       1.42730113       1.84955703      -1.12510958
H       11.38001800      12.45485300      12.59282600       0.03107235      -0.13089518      -0.14727892
27
Properties=species:S:1:pos:R:3:REF_forces:R:3 REF_energy=-18719.47248480155 charge=0 spin=1 external_field="0.0 0.0 0.0" config_type=ORCA_DFT source_file=C_DFTprod_cutcluster_0085.out orca_step=0 pbc="F F F"
O       12.40925600      15.86547700      15.47139500      -0.36904121      -0.95228027      -1.11313354
H       12.18776100      15.31168400      14.67618000       0.20201077       0.77855468       1.01106814
H       12.97070700      16.55164500      15.10612600       0.10715937       0.17200424      -0.00900945
O       12.00000000      12.00000000      12.00000000      -0.78696496       0.91570550       1.11753630
H       11.53585700      12.73247800      12.47869100       0.28728378      -0.11555418      -1.09393511
H       12.11033500      11.41435600      12.75860400       0.43901456      -0.71077247      -0.37523798
O       13.46782900      10.43603100       8.42973400       2.63658221       0.19978486      -1.31840117
H       14.19726600      10.64070100       7.69361600      -2.30603314      -0.80961391       2.74785679
H       13.93568900      10.06499900       9.22627400      -0.43552167       0.67290912      -1.42681283
O       13.28365900      14.56935200      10.45237300       0.19077618       0.07178572      -0.35908040
H       13.57249300      13.93585000      11.11694300      -0.10733817      -0.18715678      -0.14860273
H       13.51150600      14.18577400       9.58844600      -0.23435715       0.09001762       0.53030585
O       11.10048900      13.10968800       7.53208100      -1.16684121      -1.12493979       0.58983430
H       11.40547200      12.26753000       7.91741800       0.40534380       0.45365088      -0.24327929
H       10.14872400      13.00610700       7.78273400       0.89330883       0.75507685      -0.26087602
O        8.29920800      13.29298900       9.43296100       0.99548607      -0.94660652       0.86328436
H        8.90048100      12.61075300       9.87792000      -1.06860064       1.29773578      -0.84004241
H        7.90967700      12.74165100       8.75261300      -0.33478980       0.04887431      -0.19659325
O       12.77101400       9.54069100      13.23050000      -0.38178514      -0.45838351       1.03116075
H       12.47700600       9.17622300      14.08662500      -0.12261561       0.42145069      -0.45589025
H       13.51783800       8.97164000      13.05567000       0.48235328      -0.05207533      -0.43584974
O        9.85574200      11.18594500       9.68965000       1.96615163      -0.82142248       0.88731008
H       10.71418000      11.15210700      10.23491800      -1.67086401      -0.00657637      -1.00643568
H        9.76123700      10.34461900       9.20946200       0.25362089       0.44006450       0.45139514
O       10.67491900      14.57800500      12.99725600      -0.86646219       0.23695422       0.07498854
H        9.93790500      14.63688200      13.62599600       0.38910255      -0.21035148       0.16512397
H       10.25245900      14.99390500      12.22804900       0.60302118      -0.15883587      -0.18668416
27
Properties=species:S:1:pos:R:3:REF_forces:R:3 REF_energy=-18720.04388381315 charge=0 spin=1 external_field="0.0 0.0 0.0" config_type=ORCA_DFT source_file=C_DFTprod_cutcluster_0086.out orca_step=0 pbc="F F F"
O       14.27949300      11.38282700       9.35837700      -1.16950009       0.57963077      -0.89818693
H       13.92748700      11.89158300       8.55675700       0.44345995      -1.39361618       1.83045595
H       13.56734900      10.78343700       9.70392700       0.56487177       0.84224209      -0.83198087
O        9.94709700      10.26440900      14.33998500      -0.45390372      -0.67053234       1.44256721
H        9.79778200      10.19437800      15.32072000       0.23802514       0.13569111      -1.47613266
H        9.85811800       9.34635600      14.02497200       0.12835112       0.56506018       0.13976127
O       11.50353400      11.20915900      12.26312300      -1.34187895       1.01398089       0.60663646
H       12.00000000      12.00000000      12.00000000       0.82817769      -0.01685081      -0.51791396
H       10.84656400      11.64696800      12.85693900       0.38958762      -1.24257682      -0.29821050
O       14.63551600      11.67040800      13.91576100      -2.19920436      -0.62255915       0.84216588
H       15.42422900      11.70307600      13.43519600       2.07797751      -0.11095242      -0.95573409
H       14.24084500      10.75713400      13.74296100       0.51455363       0.94887407       0.11902290
O       10.11688200      14.92112700      11.71718000       1.13421273       1.11773103       0.40893008
H       10.62419800      15.77365400      11.67906000      -0.78790213      -1.01108660      -0.22411969
H       10.64910800      14.43942700      12.36855400      -0.27904113      -0.10267223      -0.22349095
O       13.35929100       9.42364600      13.25302500      -0.20521976      -0.27907856      -0.82172222
H       12.61663800       9.96407900      12.92037500      -0.45918070       0.40939514       0.50538369
H       13.59164000       9.02146300      12.40396000       0.41857933      -0.33686504       0.29585691
O       11.52894100       9.27918400      10.14905800      -1.29161413       0.87909993       0.15994777
H       10.85842300       9.91828800      10.53828200       1.33325068      -0.99512200      -0.48552099
H       11.07060200       8.84772700       9.40785000       0.24833778       0.22560907       0.38859003
O       13.64572800      16.25452800      11.92892000      -0.86027930       1.02308866       1.70756456
H       13.46721700      17.01037700      12.60721200       0.31593014      -2.56939295      -1.64031195
H       13.27644000      15.38145600      12.23800600       0.57299944       1.40381631      -0.12917593
O       13.39194200      13.08532700      11.80863700       0.21966484       0.71430033      -3.07300597
H       13.93213200      12.75345400      12.49947000       0.87778276      -0.80963772       1.86125010
H       13.95203900      12.89902800      10.98662700      -1.25803784       0.30242320       1.26737387
27
Properties=species:S:1:pos:R:3:REF_forces:R:3 REF_energy=-18720.410249369117 charge=0 spin=1 external_field="0.0 0.0 0.0" config_type=ORCA_DFT source_file=C_DFTprod_cutcluster_0087.out orca_step=0 pbc="F F F"
O        9.56751600      14.52886900      13.38443700      -1.27128601       1.96900962       0.44032953
H        8.91200200      15.24900800      13.61426100       0.82221067      -1.42811200      -0.22096566
H       10.32165100      15.06967000      13.08266400       0.30864517      -0.55168201      -0.16203515
O        7.71056100      12.62435000      12.29449000       0.26204552       1.76413968      -1.72487127
H        7.56867300      13.30196000      11.54536900       0.26951570      -1.60210129       1.81471334
H        8.46809800      13.03039600      12.77937100      -0.46488932      -0.30934868      -0.28104422
O       10.22622500      11.89875200      14.90707800       0.56401857      -0.01110202      -0.76696589
H       10.77947500      12.27471900      14.18419200      -0.35849239      -0.62837077       0.26937332
H       10.05706200      12.67358500      15.42812900      -0.37693789       0.46374873       0.57559414
O       11.88579700      12.42354800       9.95094800      -0.22319604      -1.13669734      -0.34219061
H       12.64953800      11.80776100       9.90932700      -0.31491681       0.35733554      -0.21009211
H       11.18034200      11.88997600       9.51770400       0.68229683       0.76348462       0.50694008
O       12.15604600      12.07577000      12.92676600       0.78114948      -2.26787905       1.25299462
H       12.00000000      12.00000000      12.00000000      -0.54260354       0.59108915      -1.62654251
H       12.23286600      11.07631000      13.12740200      -0.38838085       1.79924244       0.26471412
O       11.04854900       9.42203300      13.37453400       0.11080962      -0.04950089      -2.13528863
H       10.70746200       9.72261700      14.19980200      -0.65135489       0.56334998       0.92570571
H       10.42367400       9.74043400      12.65037400       0.76589806      -0.43385806       1.38224321
O       12.14897000      14.95675000      12.79046500       0.00821051       0.36394395       0.16056818
H       12.69202800      14.92388900      12.00127500       0.01902437      -0.02945790      -0.15943309
H       12.16105000      14.05693600      13.13776600       0.16060011      -0.30003419      -0.04584406
O        9.51796300      10.32202600      11.28359900       0.60745546      -0.58645099       0.89450532
H        9.79266600      10.20391600      10.40008300       0.68785155      -0.53760707      -1.47117907
H        8.76603700      10.87587700      11.20584600      -1.45525468       1.21001024       0.57076494
O       13.75232700      10.20711900       9.56567200      -1.30563385       0.40515817      -2.04867079
H       13.97309700       9.68482100       8.77123500      -0.01121664       0.36469039       0.78696259
H       14.31458700       9.96190100      10.26086900       1.31443129      -0.74300028       1.34971397
27
Properties=species:S:1:pos:R:3:REF_forces:R:3 REF_energy=-18719.842735182337 charge=0 spin=1 external_field="0.0 0.0 0.0" config_type=ORCA_DFT source_file=C_DFTprod_cutcluster_0088.out orca_step=0 pbc="F F F"
O       15.30844600      10.49771800      11.06410700      -1.74383244      -0.12180078      -2.40858196
H       15.29556500       9.99470300      10.17851800       0.08251103       1.14192696       2.10595903
H       14.36664900      10.79916500      11.18853800       0.79983534      -0.71194490      -0.01280991
O       15.80042600      13.56075900      11.48704400      -0.35668320      -0.93773050      -0.03742318
H       15.66723600      12.60063500      11.33413400       0.41836536       0.36991076      -0.05556715
H       16.47094600      13.82285500      10.84685300      -0.05029639       0.04076551      -0.02866050
O       17.03817300      10.09271400      12.97745900       0.04655960      -2.24397370      -0.49678823
H       17.35182300       9.11029100      12.97670500      -1.18107093       2.80268664      -0.14816214
H       16.25547300      10.18290100      12.34228700       1.62176376      -0.75016630       1.09437112
O       13.47358300      15.36277400       8.78010600      -1.68001776      -0.52221325       0.53545490
H       13.01490100      15.16217600       9.64018300       0.87733893       0.32201619      -0.71782737
H       12.72617800      15.23792700       8.15725000       0.83853394       0.19185722       0.26063141
O       12.53185700      11.34067100      12.36293900       1.86009887      -1.34236391       0.69217049
H       13.13114900      11.87682100      12.90422900      -0.12837586      -0.27245705       0.56441329
H       12.00000000      12.00000000      12.00000000      -1.69666797       1.58054979      -1.25979097
O       16.84174400      14.67892200      13.90313400       0.35136421       2.21027564      -0.81850607
H       16.48820000      13.98417300      13.34097800       0.26950110       0.13557701      -0.52120780
H       16.98135100      15.49441200      13.30126200      -0.49349156      -2.25611995       1.40802130
O       12.44334800       8.53592900      12.86146100      -0.48272702      -1.72057475       0.11862444
H       11.66809800       7.98836700      13.12493200       0.88495542       0.91763548      -0.25578303
H       12.23150200       9.45348700      12.98500000      -0.38395130       0.74885931       0.05462638
O       13.67837500      13.13748800      14.21678500      -0.04229876       0.55834420       0.39611766
H       13.55461100      13.66075500      15.04216000       0.40159045      -0.57925740      -0.97405778
H       14.49477800      13.44116300      13.78878000      -0.12746260       0.23499700       0.60777675
O       13.12694900      14.49898900      11.56442500      -0.59480435       0.23603392      -0.83929884
H       13.96435500      14.03482300      11.44444200       0.23645461       0.14070255       0.34965396
H       12.78599200      14.37786500      12.44810600       0.27280759      -0.17353575       0.38664417
27
Properties=species:S:1:pos:R:3:REF_forces:R:3 REF_energy=-18719.945658976743 charge=0 spin=1 external_field="0.0 0.0 0.0" config_type=ORCA_DFT source_file=C_DFTprod_cutcluster_0089.out orca_step=0 pbc="F F F"
O       11.71404400      11.28348700      12.65039200       0.15930526       1.31506733      -0.55021458
H       12.00000000      12.00000000      12.00000000      -0.21771193      -1.00774267       0.64528045
H       12.13386800      11.61933800      13.45888900       0.00807625      -0.22965938       0.12711962
O       14.11552400      15.11678100      12.07752700      -0.80706034       0.05389418       0.34003963
H       13.17618400      15.37911600      12.30275000       1.77201317      -0.78154024       0.14183903
H       14.49304300      14.55941300      12.79581200      -0.94161827       0.66712357      -0.58818010
O        9.06730600      12.57601600      12.89211000       0.51126010       0.43416762      -0.09826850
H        8.23119400      12.14100900      13.01419800      -0.37822571      -0.37459865       0.10834455
H        9.76416100      11.90550700      12.93153100       0.00869218      -0.07194713       0.03694578
O       10.44492800      11.99157600       9.84465500       0.49543146      -0.99995650      -0.57043209
H       10.91325200      11.52315500       9.11697000      -0.51666759       0.46755489       0.58667868
H       10.26965500      11.27416300      10.48246100      -0.00670019       0.56244321      -0.16296887
O       14.18038000      10.22577800      10.65927500       0.69273310       0.23998807       0.07512414
H       13.56247000      10.93414100      10.81928800      -0.15187235       1.08407169      -0.09027740
H       13.61418100       9.48271100      10.76804800      -0.46713919      -1.33853590       0.07733303
O       11.85589000       8.97200400      14.17430300      -0.59018171      -1.13475641       0.97785817
H       12.01895200       9.61819900      13.48786800       0.60860140      -0.05702280      -0.41595372
H       12.53031900       8.27893800      14.26899700      -0.33320893       0.80407421      -0.53452421
O       14.23209800      10.59098100      14.06444400       0.59909284      -2.13356810       0.00146393
H       14.40056800      10.69962500      13.12579600       0.09594664       0.43975967      -0.51945163
H       14.37176700       9.59508600      14.11143100      -0.32271301       1.92466488       0.39100563
O       12.69942300      13.79055100      14.41681000       2.34769093      -0.25199507      -0.89601060
H       11.84160400      13.93243400      14.72144100      -2.34240289       0.38852683       0.83571889
H       13.26999500      14.36727800      14.93695300      -0.13632365      -0.15677179       0.10128368
O       12.94696500      12.81519400      10.78446600      -1.76900123       0.07090368      -1.20455189
H       13.49271400      13.58608100      10.93912800       0.34709962       0.66087440       0.24688007
H       12.14326300      13.10390500      10.25030200       1.33488400      -0.57501965       0.93791819
27
Properties=species:S:1:pos:R:3:REF_forces:R:3 REF_energy=-18719.666807915313 charge=0 spin=1 external_field="0.0 0.0 0.0" config_type=ORCA_DFT source_file=C_DFTprod_cutcluster_0090.out orca_step=0 pbc="F F F"
O        9.71426700      14.22345300      12.89878900      -0.98892086       0.27278414       2.48490665
H        9.71080600      14.99765200      13.54896100      -0.04994538      -1.37697991      -1.38749644
H        9.18238100      13.53604400      13.41058700       0.96238990       1.17762936      -1.04736230
O        9.99945600      12.72715600       9.47345900      -0.32210253       1.58222193       0.07281133
H        9.81648600      13.71128700       9.54250900       0.08079276      -1.88943315      -0.04976900
H        9.23990000      12.24872600       9.83956200       0.13887635       0.47380036      -0.12014427
O       11.83817200      11.50434600      11.11876000       0.24765726       0.96504277       2.01840000
H       11.35023500      12.16065700      10.61379800      -0.42382695       0.05466726      -0.51489528
H       12.00000000      12.00000000      12.00000000       0.08106062      -1.19382186      -1.55133455
O       13.39468400      13.36193900       9.11295100       1.00094293       0.59958243      -1.87701631
H       12.93326300      12.73163300       8.55828400      -0.25580293      -0.12296641       0.29692475
H       13.03581100      13.36347700       9.97194100      -0.63389818      -0.46317836       1.48267210
O       12.09235300      10.78350700      15.49240200      -1.43545204      -1.47056468      -2.26256751
H       12.38103500      11.33574700      14.71791700      -0.53173420      -0.63759681       0.99552495
H       11.48712400      10.06381200      15.04914300       1.87421026       2.11038410       1.29541937
O       12.17648500      13.01710000      13.46913200      -0.64875664      -0.53438645      -0.12365058
H       11.41772500      13.59208400      13.27786400      -0.20179099      -0.02718782       0.03352750
H       12.91344200      13.59192700      13.60095900       0.93925306       0.52040243       0.01933789
O       10.86576500       8.81131900      10.11822500      -1.79388082      -1.00964724      -1.01942453
H        9.94067700       8.79380800       9.77040600       1.11714554      -0.39267952       0.28563791
H       10.90703500       9.69919000      10.42656100       0.70449785       1.38626200       0.77728501
O       15.19765100      12.17555000      11.64255200       0.29474543      -0.03609443       1.06702162
H       15.49867000      12.09105000      12.57334600      -0.23225301      -0.05654658      -0.99356288
H       15.18518700      11.27082700      11.29167400      -0.18811282       0.06761159      -0.06883111
O       13.88164700       9.84987100      10.22003900      -0.12130388       0.28315263      -1.35104066
H       13.91868200       9.58704800       9.25910000      -0.20904058       0.54451963       1.65538973
H       13.20344300      10.57036000      10.31026500       0.59524992      -0.82697745      -0.11776337
27
Properties=species:S:1:pos:R:3:REF_forces:R:3 REF_energy=-18720.129140791047 charge=0 spin=1 external_field="0.0 0.0 0.0" config_type=ORCA_DFT source_file=C_DFTprod_cutcluster_0091.out orca_step=0 pbc="F F F"
O       15.10375900      10.01266100      13.64782900       0.82991190       2.28571844      -0.41694915
H       15.91098500       9.49806200      13.77377400      -0.18358845       0.02620175      -0.02428968
H       15.43977800      10.95233400      13.44743800      -0.74195024      -2.24066927       0.41931328
O       14.08553600      16.34667300      11.45741000       0.02399657      -0.56529446      -1.23020924
H       14.02525500      15.43858700      11.77624100      -0.09416836       0.15010544       0.70445949
H       14.06723700      16.17440800      10.49582600       0.03204767       0.56986912       0.48801686
O       14.18452700      10.36983300       9.48382000       1.76190509       0.58780359      -2.56333235
H       13.94556300      11.06260300      10.08158000      -0.35469240       0.81659559       0.63060886
H       14.68485200      10.87212800       8.73533800      -1.50069312      -1.39658781       2.01396721
O       11.88821500      13.10431200      15.16931800      -0.85941433      -0.88589186       0.54526469
H       11.35970800      13.05660200      15.99319100       0.56385448       0.30573211      -0.65475723
H       11.69805300      12.23163400      14.75076800       0.42866793       0.53112346       0.05250759
O       12.41367800      12.77153000      11.56088400      -0.32936713      -1.11117590      -0.66468220
H       12.52245000      13.50705200      12.16937900       0.05196529      -0.10319452       0.55241960
H       12.00000000      12.00000000      12.00000000       0.44558229       0.92780270       0.28530218
O       11.71584900      12.66989200       8.85240900      -0.32522622       0.20705640      -0.47888569
H       11.83786700      12.62605700       9.81622900      -0.14250289       0.52845214      -0.15297396
H       11.09866800      13.39561300       8.64369800       0.49315459      -0.56228364       0.48608061
O       11.98657600       8.24850000      11.81395800      -0.01137497       0.20436652      -0.29721641
H       11.82968400       7.31161300      11.90122800      -0.13914462      -0.45252000       0.44546417
H       12.12045600       8.32520000      10.86331400       0.15824041       0.45492635      -0.10032106
O       13.79839300      14.37749000      13.51943000      -0.42965677       0.12021117       0.13147769
H       13.25934400      14.12240900      14.29739400       0.26910402      -0.08333126      -0.30622263
H       14.62243100      13.89140700      13.55182600       0.06163372      -0.13761234       0.24820573
O       12.13561700      10.57478300      13.79272100      -1.69313275      -1.23184673      -1.72865938
H       11.80008500       9.88638800      13.12773000       0.28220034       1.16263350       1.30016603
H       13.05225500      10.33993500      13.78019000       1.40264805      -0.10819049       0.31524494
27
Properties=species:S:1:pos:R:3:REF_forces:R:3 REF_energy=-18718.661643813142 charge=0 spin=1 external_field="0.0 0.0 0.0" config_type=ORCA_DFT source_file=C_DFTprod_cutcluster_0092.out orca_step=0 pbc="F F F"
O       11.07578200      12.18143100      12.33928900       1.92662570      -0.59795220      -0.51763057
H       12.00000000      12.00000000      12.00000000      -1.59443956       0.15310293       0.59019857
H       10.82369900      12.96861900      11.86017900      -0.14642696       0.36277641      -0.26241149
O       13.07746600       7.52371000      13.39514200      -0.08523640       0.08003989      -0.14052427
H       13.92060600       7.68228100      13.85098100      -0.81027988       0.35548065      -0.12653757
H       12.44712600       8.25986200      13.52677100       0.86301259      -0.45781128       0.38823892
O       13.16672900      13.91944500       8.93653300      -2.68228136       1.41151867      -1.91394636
H       13.40290100      14.64143400       8.32270100      -0.26250708      -0.57090810       0.43248859
H       13.94616700      13.70859100       9.35183000       2.92752837      -0.87582749       1.51522063
O        9.33154100      13.76635600      17.21896300       0.84364118      -2.76828225      -2.17359890
H        9.69591800      13.18099200      16.44314200      -1.43805194       1.22379681       2.08202591
H        9.75584700      14.56935400      16.98575800       0.49524814       1.53910232       0.00964200
O       10.79652100       8.12588900       8.99590000      -2.94554702       1.18038949      -0.27550401
H       10.12744900       8.88289400       8.86582200       1.94108132      -0.55821724       0.18565495
H       10.06043600       7.49002800       9.09472200       1.03612154      -0.56137491       0.13465475
O       13.71423400      10.27125200       7.27479500      -0.50588500       0.27986748       0.45920955
H       13.15595500      10.57568300       6.56207000       0.10831873       0.02677588      -0.80984130
H       13.08985100      10.43582300       7.99544400       0.40530935      -0.31938688       0.35417545
O       11.24335200       9.77670300      15.04161000       0.29673644       0.34044509       0.74655827
H       11.36628000      10.55044500      14.46528600      -0.05816931      -0.18032346       0.67769651
H       11.41567600      10.03767700      15.98380100      -0.21325143      -0.10219925      -1.56349021
O        8.96290100      12.67027600      14.13407300       1.20006275       0.29588026      -1.13106174
H        9.61719400      12.11992500      13.61501700      -1.00525698       0.81128672       0.81472136
H        9.09873300      13.57206100      13.75387300      -0.26756958      -1.05386642       0.55897119
O        9.02632000      10.46006700       8.65592500      -2.06486555       1.20418022       0.83120141
H        8.56178000      10.97829800       9.40804200       1.13636510      -1.37927909      -1.92483755
H        8.34622500      10.39217900       7.93555200       0.89971684       0.16078570       1.05872591
27
Properties=species:S:1:pos:R:3:REF_forces:R:3 REF_energy=-18719.791940861076 charge=0 spin=1 external_field="0.0 0.0 0.0" config_type=ORCA_DFT source_file=C_DFTprod_cutcluster_0093.out orca_step=0 pbc="F F F"
O       12.66085000      12.52856900      11.41071900      -2.92748564      -0.19753155       1.60201455
H       12.07485800      13.31878200      11.28490300       0.92538293      -0.39484614      -0.53419547
H       12.00000000      12.00000000      12.00000000       1.84868306       0.56269846      -1.34986253
O       12.13606300      11.24961100      14.02982700      -0.18556126      -1.56256477      -0.43556471
H       12.31060400      12.12876900      14.29394500       0.32532937       1.53250482       0.50131234
H       12.99714300      10.81355600      14.08313600      -0.15894026       0.02111621      -0.06223433
O       10.54922600      14.34537000      10.54046000       0.87734793       0.93750800       0.11896367
H       10.08406700      13.63445500      10.97108800      -0.73933301      -0.40522029       0.42456013
H       10.62609600      15.07251700      11.18617900      -0.25976551      -0.49204758      -0.43284222
O        8.69376500      12.82870900      12.41275300       0.83349710       0.47446355       0.89598890
H        7.81910500      13.03856400      12.11551100      -0.87575210       0.05923478      -0.48768879
H        8.81776100      13.43796700      13.16733500       0.02978032      -0.57235913      -0.42030300
O       10.32411700      10.66295900      11.26637300      -0.42952883      -0.69297437       2.02730764
H        9.58882900      10.95422600      11.84009400       0.19725921       0.37003386      -0.44557956
H       10.62643900       9.89562700      11.79786900       0.20361035       0.33579695      -0.86350496
O       15.31788800      11.85504200      11.63902000      -2.12850241      -1.18224315       0.31490283
H       15.39641900      10.88937300      11.81719900       0.20815118       0.98596311      -0.33295069
H       14.29887100      11.94730800      11.59022200       2.20576201       0.23498630      -0.02449531
O       12.93322100       9.96845600       9.70721100       0.49514653      -1.98034598      -0.07410043
H       13.49766700      10.13657700       8.94739600      -0.21801537       0.43187008       0.11169444
H       12.64277900      10.79016300      10.05034000      -0.27677871       1.43522645       0.13301166
O       10.04765700      11.11977200       8.66364100      -0.59419762      -0.12423273       0.98132654
H        9.95446800      10.90911300       9.63449300       0.39398323       0.10861477      -1.54307133
H       10.62887600      11.88189000       8.64387200       0.17113470       0.09697631      -0.10858926
O       13.79961000      12.52335700       8.42071800      -0.97922369       0.11893538      -0.16283348
H       13.47631800      12.94991000       9.22537500       0.21354309      -0.17100306      -0.07486323
H       14.74375400      12.52129300       8.48410900       0.84447350       0.06943969       0.24159655
27
Properties=species:S:1:pos:R:3:REF_forces:R:3 REF_energy=-18719.758898401673 charge=0 spin=1 external_field="0.0 0.0 0.0" config_type=ORCA_DFT source_file=C_DFTprod_cutcluster_0094.out orca_step=0 pbc="F F F"
O       10.31161900      12.16092300      10.85139800       0.60655305      -2.32760243      -0.62304781
H        9.88090200      11.38044300      11.27219900       0.00688459       0.55046947      -0.17636427
H       10.09323200      12.95042900      11.29646300      -0.61101500       1.36213353       0.68457828
O       12.15730100       9.87339800      10.22363000       0.08257762      -0.14559171      -0.11483900
H       11.55653100       9.53042100       9.52396500       0.42303140       1.03151438       0.91432688
H       11.86582100      10.73527600      10.59199300      -0.38073392      -0.98822265      -1.06489815
O       10.95594800      14.29992600      13.52212300       1.61096147       0.19176564      -0.86428940
H       11.46459400      14.88760900      14.08902000      -0.24604302       0.05559404       0.17721906
H       10.11928600      14.13680700      13.90130700      -1.46233961      -0.09658411       0.91665198
O        9.44102700       9.38311700      11.80331400       0.04536856       0.62830248       0.28955514
H       10.21194600       8.97309700      12.22619900       0.17662693       0.11457361       0.07847738
H        9.08772300       8.76112400      11.17437600      -0.10715613      -0.33411380      -0.22219743
O       12.42504300      11.97793800      12.93023700      -0.40131185      -0.74252287      -2.92812965
H       11.99512000      12.76058600      13.22513700      -0.45110775       1.23508709       1.15923280
H       12.00000000      12.00000000      12.00000000       0.99919710      -0.39078411       1.78860486
O       10.68909400      10.84742500      15.36123100       0.24329276       0.61260975       0.31243035
H       10.31002000      11.03645500      14.46952600       1.23296531       0.16800577       1.10705519
H       11.44758300      11.42864600      15.65386200      -1.49102927      -0.81834337      -1.35545628
O       12.10415600       9.15797800      13.13072400       0.51651394       0.64103731      -0.53014562
H       12.48844300       9.02681000      12.25043200      -0.16260280      -0.43748614      -0.09018088
H       12.40681100      10.08443200      13.25787000      -0.56213776      -0.43771281       0.49539829
O       12.18688600      12.14180000       7.48345500       1.23718182      -0.38174318      -0.68255086
H       13.15108600      12.02734800       7.63546600      -1.09131186       0.12042884      -0.00534054
H       11.81898000      12.45898800       8.29805200      -0.22854337       0.23934411       0.75002309
O       11.26106300      14.97831700      10.73712900      -0.92864731      -0.60475724       2.18581308
H       12.16689900      15.07665900      10.49194200       0.97246662       0.09551526      -0.33199017
H       11.28437100      14.73845500      11.72007000      -0.02964148       0.65908316      -1.86993637
27
Properties=species:S:1:pos:R:3:REF_forces:R:3 REF_energy=-18719.427714073325 charge=0 spin=1 external_field="0.0 0.0 0.0" config_type=ORCA_DFT source_file=C_DFTprod_cutcluster_0095.out orca_step=0 pbc="F F F"
O        9.46521800      10.72971300      13.65473900      -0.18327977      -1.52580339      -0.74794857
H        9.46992600      11.49813400      13.11815600       0.06691600       1.00654336      -0.85038297
H        9.53236700      11.04433000      14.52932700       0.10547787       0.51429642       1.67448711
O       12.60096800      11.25621500      12.33048600      -0.72140558       2.01663905      -0.84132770
H       12.00000000      12.00000000      12.00000000       1.30045035      -1.34099783       0.89796232
H       13.23217400      11.57595900      13.00701300      -0.55529415       0.09251277      -0.08238571
O       15.31886000      12.73828100      11.44977200      -0.63681911      -0.56862085       0.00317506
H       14.76804300      13.52241900      11.45172300       0.10463372       0.40045043       0.00880608
H       14.64092900      12.03953700      11.36622100       0.45985922       0.09058876       0.00801459
O        8.83205000      11.38349900       9.93183900      -0.55935711      -0.72580926       0.06410794
H        9.12245700      12.11121400      10.49668700       0.11532406      -0.41215481       0.07219787
H        8.69754800      10.56274000      10.45940500       0.31182516       1.02352056      -0.23276517
O       11.18131000      10.35717500       9.03574000       1.55664259      -0.48347727      -0.59092949
H       11.92495600      10.97309300       9.02029000      -0.30583917      -0.08647315      -0.10784868
H       10.37500000      10.85554800       9.07720500      -0.97417563       0.70136398       0.22397833
O       10.46792300      13.41940900      11.09330400      -0.24017545      -0.40787588       0.60998388
H        9.90571400      13.89475000      11.73082600       0.63503512       0.25683970      -0.61352244
H       10.97836700      14.02219800      10.54306100      -0.34450826       0.30550467       0.21405803
O       12.64475700       8.84712200      14.78228000       2.07414867       0.73630708      -0.53134432
H       12.79275400       9.75998900      14.44100600      -0.75066093      -1.13062059       0.59720051
H       11.75848400       8.68752500      15.03154100      -1.44560661       0.21262269       0.03862733
O       11.39755800       9.10432500      11.42488900      -0.30310660      -0.32293799       0.81014089
H       11.44739400       9.52244100      10.55642400      -0.02707130       0.12459485       0.06826285
H       11.62591700       9.77896700      12.09625300      -0.08516584      -0.68016040      -0.80241847
O       14.20033700      11.16888700      14.43739100       1.27386889       1.21477861       0.49734781
H       14.59966600      11.93842700      14.90871600      -0.65524471      -0.77370917      -0.36286753
H       14.98832600      10.76085600      14.04839700      -0.21647158      -0.23792224      -0.02460952
27
Properties=species:S:1:pos:R:3:REF_forces:R:3 REF_energy=-18719.386079455653 charge=0 spin=1 external_field="0.0 0.0 0.0" config_type=ORCA_DFT source_file=C_DFTprod_cutcluster_0096.out orca_step=0 pbc="F F F"
O       12.00000000      12.00000000      12.00000000       1.59906492       0.27391075       2.72378951
H       12.21101300      12.57645900      12.80419100      -0.82232828      -0.99180122      -2.04731155
H       11.25374600      12.33693100      11.53627200      -0.80220970       0.71229883      -0.23674627
O       13.33596900      10.94135700       9.98622400      -0.04622067       0.58826901       2.17732386
H       13.96007400      11.68828600       9.86496400       0.39065185      -0.37058372      -0.91339197
H       13.15813900      11.14281200      10.96068300      -0.43022170      -0.78890373      -1.63279014
O       14.09081000      15.27660600      13.70163100      -0.38232199      -0.02166443       0.46538529
H       14.93729700      15.01416800      14.08320200      -0.25516077       0.04124780       0.23204100
H       13.43927500      15.34814700      14.42550800       0.76765464      -0.09967124      -0.42146349
O       11.97670100      12.05077100       7.70315600      -2.41897904      -0.28302068      -4.22401562
H       12.19421000      11.97987900       8.59008900       0.30222934      -1.06283088       2.77526588
H       11.19455900      11.46801200       7.41553700       2.08442146       1.24831089       1.35674250
O       11.43608800      14.81562800      11.95633000      -0.73114194       0.11529938      -0.34769781
H       10.81032300      15.01859100      11.24918400       0.03691585      -0.33534253      -0.32958064
H       11.17897200      15.49052000      12.58083800       0.20153054       0.35114772       0.66096202
O       15.06005000      12.90258500       9.70093100      -1.84295542       0.86910590      -1.00534240
H       14.48992600      13.54949300      10.16577800       0.28195043       0.42806151      -0.43742300
H       15.71479500      12.72276000      10.32563200       1.91311769      -0.56816638       1.47497592
O       13.91783600      15.36855400      10.87248600      -0.98393395      -0.60959092      -0.24336306
H       14.31039600      15.28748700      11.74379900       0.11859075       0.20617662       0.29649578
H       12.97058100      15.16535900      11.08977100       1.09362596       0.32046505      -0.23065070
O       12.86849000       8.47057700       8.77102900       1.42365186      -1.40005217       0.61969818
H       13.09409800       9.36038700       9.13252800       0.21118884      -0.75440785      -0.02482493
H       13.57297900       7.79198100       9.06029300      -1.66000979       2.08638856      -0.60345117
O       15.00291400      10.29005300      13.28707600      -1.48182333      -0.75627010       0.65640094
H       14.87356700       9.83772400      12.43942800       0.10912513       0.17433119       0.12620801
H       14.24113800       9.93984600      13.83278300       1.32358745       0.62729265      -0.86723614
27
Properties=species:S:1:pos:R:3:REF_forces:R:3 REF_energy=-18719.27047203307 charge=0 spin=1 external_field="0.0 0.0 0.0" config_type=ORCA_DFT source_file=C_DFTprod_cutcluster_0097.out orca_step=0 pbc="F F F"
O       12.47158900      10.16021900      11.25027200      -0.91661840       0.47920980      -0.62000995
H       13.32751900      10.22222700      10.80862800       0.28700111      -0.14485581       0.08600017
H       12.56148100       9.92824000      12.17099800       0.35738321      -0.49730821       0.56503282
O        8.97256800      14.51839700      10.37171800      -1.48318236       1.07222065      -0.56055956
H        9.63786500      14.61941000       9.69239800       0.58621979      -0.19454541      -0.13262188
H        8.25829200      15.11419100      10.02062900       0.78978639      -0.93921269       0.66448850
O       12.97479200       9.79225000      14.04098700       0.76160108       2.62706008      -0.54817939
H       13.82873000       9.41368600      14.21485400       0.53954444      -0.97770370       0.27240886
H       13.29882400      10.73873100      13.86606100      -1.34248125      -1.45371855       0.36579941
O        9.98529400      15.41982000      12.94191700      -0.11654421      -0.32185817      -0.00933352
H        9.83356700      16.36311800      12.87220200       0.01661550       0.15389324       0.00911142
H        9.37857900      15.02318900      12.29544200       0.28099897       0.10704208      -0.01737989
O       12.18782600      12.66439500      12.74012000      -0.38766392      -1.00469273      -1.26867537
H       11.63343600      13.44119200      12.56085000       0.19737882      -0.27115154       0.11983589
H       12.00000000      12.00000000      12.00000000       0.38164404       1.20191862       1.20352258
O       11.09115000      10.53359600       8.75293400      -0.54100077       0.95115182      -1.88690354
H       11.54701800      10.01258900       9.36769400       1.29707243      -1.21658440       1.57773382
H       10.28667700      10.72321300       9.21284600      -0.80321264       0.32086917       0.28463292
O       13.88069100      14.36169600       9.79732400      -1.02887941       2.66107166      -0.45496491
H       13.61731800      15.37790500       9.85303600       1.36661348      -3.51056925       0.39578521
H       14.50246900      14.08115700      10.48344600      -0.36818354       0.84465774       0.08770080
O       14.66035100      10.06183600       9.60859900       1.08042252       2.94329700      -2.40273280
H       15.49952100      10.36912300      10.03086900      -0.87925847      -0.48120575      -0.39690405
H       14.59355800      10.74905100       8.79760600      -0.03277396      -2.38897344       2.71679107
O       14.88192700      13.89466100      15.21655800       0.86081281      -0.74643378      -1.14884853
H       14.50333900      14.37589800      15.92108300      -0.67886122       0.81644899       1.19189641
H       14.29563800      13.15127200      15.06886600      -0.22443454      -0.03002725      -0.09362647
27
Properties=species:S:1:pos:R:3:REF_forces:R:3 REF_energy=-18719.569330840317 charge=0 spin=1 external_field="0.0 0.0 0.0" config_type=ORCA_DFT source_file=C_DFTprod_cutcluster_0098.out orca_step=0 pbc="F F F"
O       12.36963700      14.16203000       8.06763500      -0.42787407      -1.33633652      -0.91881932
H       11.60293300      14.08836500       7.46296200       0.50820655       0.33850103       0.41710598
H       12.80848700      13.28880600       7.94146200      -0.10688354       1.14738346       0.34619418
O       10.60063100      12.56942100      10.27023200      -0.45488331       0.10552436       0.09468695
H       10.82256700      12.08549800       9.46987100       0.33450456      -0.24655513      -0.10624293
H        9.85894600      13.12391400      10.00487700       0.01797011       0.24744026       0.23679008
O       11.69949200      10.68207000       8.54933700      -0.39774460       0.20632554      -0.05940611
H       11.05177600      10.05401200       8.19986300       0.28115072       0.24461945      -0.27803073
H       12.17512300      11.10694300       7.82845100      -0.20638663      -0.34558720      -0.33268206
O        8.35187300      10.67830500      11.00206200      -0.92217985       2.38057292      -0.85063818
H        8.77563200       9.87082000      11.13421100       0.91902974      -2.33689559       0.63901215
H        9.09177700      11.22010300      10.68848400      -0.21915874       0.20739327       0.30118455
O       10.20505200       8.73525600      11.42033900       0.72504410      -0.77058451      -1.15564169
H       10.21912100       7.97529300      12.00516700      -0.11239805      -0.07471158       0.42749545
H       10.51513800       8.33919500      10.57487400      -0.33713315       0.49909286       0.74513871
O       12.54547300      16.37921400      13.22679500       0.23789057       0.87422877      -0.86841525
H       12.34473200      15.57169000      13.66264800      -0.27327409      -1.03907445       0.74793026
H       12.74556800      16.07452000      12.32745900       0.08388466       0.03778586       0.03274516
O       12.91544600      12.16673500      12.37244800      -0.79739001      -1.76725427      -1.00979688
H       13.44547800      11.40733900      11.99992900      -0.71950394       1.10148474       0.47382673
H       12.00000000      12.00000000      12.00000000       1.34933844       0.26983601       0.61544768
O       13.15167600      14.37705700      10.84581900      -1.03013873       0.82966903      -1.31559924
H       12.38232600      14.24325400      10.23752700       1.05101296       0.30107610       0.61727564
H       13.10185000      13.61639900      11.41975400       0.18163524      -0.65343887       0.65300857
O       13.62415800       9.65448400      10.09044800       1.92158341       1.64324584      -0.49172676
H       13.28568500       8.92624300      10.54746200      -1.08237841      -1.51777245       0.86591563
H       12.97083400      10.07388800       9.52840900      -0.52392391      -0.34596900       0.17324146
27
Properties=species:S:1:pos:R:3:REF_forces:R:3 REF_energy=-18719.398566371987 charge=0 spin=1 external_field="0.0 0.0 0.0" config_type=ORCA_DFT source_file=C_DFTprod_cutcluster_0099.out orca_step=0 pbc="F F F"
O       12.71354500       8.88435500      12.77999000      -0.34577874       0.56236499       1.82368736
H       12.20731700       9.59966300      12.37218400       0.18153928       0.09645818      -0.15242277
H       12.65207000       9.09148000      13.75831700       0.28590356      -0.45163914      -1.67376998
O       15.12515900       9.25806200      10.92654000      -1.52774391      -0.00775198       1.95341475
H       15.05979200      10.05923600      10.42920900       0.25091336       0.72708561      -0.78493132
H       14.42241800       9.43532900      11.63283800       1.30527189      -0.83019930      -1.16002347
O       14.45605900      12.73020300       9.25851000      -0.42324449      -1.41400138       0.91159513
H       14.18839700      12.21194300      10.06387100       0.34269702       0.90547622      -0.69548222
H       14.17304700      12.12069300       8.55933200       0.06258703       0.37279754      -0.10824294
O       12.46705800      14.57705300      10.07276900       1.71285512      -1.24559653      -0.94598179
H       13.23597300      14.00348100       9.70457900      -1.49764328       1.64458086       0.06991329
H       12.34759100      14.00190400      10.83608100      -0.49837337       0.16393103       0.42666031
O        9.76815200      12.97715500      10.53339500      -0.41614521      -0.05529158       0.88890808
H        9.48178200      13.86374400      10.77271600       0.14832454       0.20464414       0.00547141
H        9.02443500      12.41090300      10.76482100      -0.03212290       0.05369163      -0.24707866
O       11.61277000      10.52902100      10.49267000      -0.37554065      -3.43099782       2.22442457
H       10.94462200       9.81451400      10.79508500       1.53067224       1.91244180      -1.16808383
H       11.15566500      11.14024800       9.96400000      -1.13196497       1.34356734      -1.35910842
O       12.75072500      12.64579800      11.90432500      -1.12357222      -2.05471370      -0.89626118
H       12.74682900      13.02519300      12.74913800       0.42738551       1.20556455       2.00267467
H       12.00000000      12.00000000      12.00000000       0.80452472       0.54497050      -0.69659088
O       10.64404900      12.71816400       8.10908200      -0.21486793      -0.13405774       0.78016012
H       10.97219400      13.47944000       7.63332400       0.22514550       0.20660086      -0.03387573
H       10.47331300      13.03271100       9.03751600       0.27285526      -0.21783709      -1.38970779
O       10.12002600      11.15355300      13.11991100      -0.40559377      -0.73626198       0.14585545
H       10.18497100      10.31566500      13.63222500      -0.39327175       0.85649058      -0.54694064
H        9.23853800      11.16552300      12.69039100       0.83518811      -0.22231770       0.62573637
27
Properties=species:S:1:pos:R:3:REF_forces:R:3 REF_energy=-18720.118458503955 charge=0 spin=1 external_field="0.0 0.0 0.0" config_type=ORCA_DFT source_file=C_DFTprod_cutcluster_0200.out orca_step=0 pbc="F F F"
O       12.00000000      12.00000000      12.00000000       0.37587834      -0.23326659       0.18519796
H       12.28156000      11.28040500      12.61288000      -0.22073041       0.53588592      -0.34067089
H       12.77343300      12.20781800      11.44271400      -0.31177014      -0.03630665       0.19572056
O       10.44224800       8.21062700      13.12921100      -0.58792788      -1.38582826       0.71494121
H       10.96152500       7.93766300      13.89709100      -0.07462478       0.11039279      -0.32215354
H       10.80402800       9.02665200      12.84514200       0.57279555       1.18317970      -0.44585642
O       15.09201300      12.99323700      10.79422100       1.30284857      -1.50512190      -1.99811014
H       14.37269000      13.34979200      10.24494400       0.04966662       0.00871419      -0.07797575
H       15.66938800      12.47718500      10.10705100      -1.66355010       1.45925208       1.98202547
O       11.04621100      14.17073300      14.00538800       0.62454985      -0.56038859      -0.88906059
H       10.39422400      13.57392200      14.37408500      -0.18609302      -0.07345041       0.13531357
H       11.48036800      13.62773800      13.30024000      -0.42954652       0.54486966       0.69322670
O       11.57554700      10.98653600       9.03916700      -0.20548711       0.10790257       0.31859287
H       10.89452800      10.94629600       9.75965000       0.06803031      -0.36637739      -0.75845837
H       11.11735900      11.08471700       8.19696700      -0.16359314      -0.20375758       0.14791177
O       12.46748600      13.44388900       9.13551700       1.46828426      -1.47825418      -0.09238298
H       12.02250600      12.55137700       9.19453100       0.21461570       0.88018165      -0.11346629
H       11.88726300      14.15507900       9.29704000      -1.21340605       0.96152935       0.33686056
O        9.70705400      10.73475700      11.04754100      -1.29607592       0.18643909      -0.22500821
H        8.79030700      11.10353000      11.04282900       1.21361915      -0.44377259       0.06060065
H       10.26931100      11.35495200      11.52410000       0.19416813       0.42145639       0.31724320
O       13.49398700       8.76229400       9.77251100       0.91219297      -0.82939197      -0.55997248
H       13.37653200       9.45303400       9.11482900      -0.47622722       0.23815596       0.51372183
H       13.07096500       8.97626900      10.59553400      -0.45798144       0.52565524       0.11812857
O       12.81735000      10.02107300      13.74853700       1.52815898       0.62473029      -0.27646648
H       12.66632400      10.00527000      14.69853300      -0.03093963       0.08709736       0.09051554
H       13.72581600      10.41992100      13.64240000      -1.20685504      -0.75952615       0.28958173
27
Properties=species:S:1:pos:R:3:REF_forces:R:3 REF_energy=-18720.22882219226 charge=0 spin=1 external_field="0.0 0.0 0.0" config_type=ORCA_DFT source_file=C_DFTprod_cutcluster_0203.out orca_step=0 pbc="F F F"
O       10.98503400      11.44767400      13.44082000       0.34038344      -1.64626041       0.40193668
H       10.88883100      10.48243800      13.64863500       0.31599004       1.37162306      -0.33289016
H       10.08874800      11.70616000      13.19877700      -0.72924822       0.37034862       0.07868471
O       12.56678500      12.04587900      11.21623700       1.46976578       1.46214853       0.28067990
H       12.00000000      12.00000000      12.00000000      -0.30832404      -0.47472282       0.31285247
H       13.28693500      12.67174300      11.52975200      -1.17151579      -1.03605998      -0.76808977
O       14.04586300      11.13722200      13.93576100      -1.01120965       0.53483876       1.28336711
H       14.75140600      11.76497100      13.91198900       1.46337849       0.17114210      -0.75459950
H       13.58200200      11.58602200      14.67437300      -0.51029902      -0.88699631      -0.46797130
O       11.54394300      13.86528300       9.27058700       0.28145982      -0.26137590       0.66944096
H       11.92793600      14.64239600       9.69800900      -0.04078968      -0.03244825      -0.21041293
H       11.93936700      13.12928100       9.79800200      -0.09544414       0.27825298      -0.29495986
O       13.39544800       8.10201800      12.82867900       0.41210483       1.55347191       1.58611212
H       12.47358700       7.87248400      12.96817200      -0.07055025       0.01130432      -0.01544559
H       13.56453900       8.93715700      13.38354800      -0.38459479      -1.66591407      -1.05690675
O        9.09105900      12.94783300      10.26908700      -0.01399560      -0.34883455       0.21463982
H        9.93197200      13.41000200      10.09359900      -0.05952968       0.00558223      -0.37319252
H        9.24949200      12.04019300       9.96221000      -0.07464895       0.45784702       0.13262373
O       14.31970200      14.66176600      11.71406900      -0.57085884       1.32256996       0.00297883
H       14.82758500      14.16715600      12.33780100       0.71379609      -0.61181837       0.56307271
H       14.27074300      15.54668500      12.13733800      -0.09133233      -0.74873291      -0.54157664
O       14.39837000       9.71955800      10.91545700       0.85958649      -1.79901084       0.52591138
H       14.13130400       8.97197100      11.52473500       0.26441253       1.19063266      -1.18736721
H       13.72034200      10.36836900      11.00152800      -0.95580119       0.86254681       0.13364379
O        8.48837200      12.53416700      13.07148700      -0.87116088      -0.25323609       0.14361469
H        7.59548100      12.16109300      12.95332800       0.58682359       0.11649824       0.23165713
H        8.59275200      13.06282800      12.27268200       0.25160185       0.05660335      -0.55780391
27
Properties=species:S:1:pos:R:3:REF_forces:R:3 REF_energy=-18719.706466493564 charge=0 spin=1 external_field="0.0 0.0 0.0" config_type=ORCA_DFT source_file=C_DFTprod_cutcluster_0204.out orca_step=0 pbc="F F F"
O       10.97705300      10.31883200      14.28244300       0.84650426       0.36904754      -2.26300732
H       11.23671700      10.50948600      13.30998800      -0.87781006      -0.43663377       2.25675686
H       11.08727200       9.36515900      14.37384600      -0.04858429       0.00786310      -0.06352363
O       15.13745700       9.96144100       9.85094600       0.76229635      -1.90596920      -1.02105945
H       14.54624700       9.61813500       9.16441700       0.16727619       0.31408455       0.30144505
H       14.73600500      10.69319900      10.25870700      -1.03769490       1.58669709       0.82003840
O       11.06919800      12.22547500      11.74614400       1.81858701      -1.41435455      -1.24063594
H       10.66676700      12.72761300      12.42824300      -0.80750165       0.68293683       1.32226009
H       12.00000000      12.00000000      12.00000000      -0.85810117       0.57565364      -0.13566015
O       11.06843300       9.90681100       9.44379700       2.72479095       1.47721098       1.43701471
H       10.54735100      10.69906200       9.29387100      -0.53765309       0.06054300      -0.14270004
H       11.87194600      10.36705300       9.91267500      -2.14429089      -1.53861067      -1.19720605
O       13.21756100       7.94712500      12.20301700      -0.10448033      -0.54612128       1.18583262
H       13.76412800       8.69394900      12.02141500       0.93788585       0.69746645      -0.57996990
H       12.56353500       7.95051900      11.52278000      -0.77996570      -0.05720484      -0.78761684
O       13.92757400      11.69758300      12.06708300      -0.74319655      -1.47198367      -0.35873325
H       14.45604100      11.20094300      12.71003200       0.03434886      -0.54941589       0.19872392
H       14.25998800      12.56266800      12.11585300       0.62814240       2.02850737      -0.06840379
O       14.77671500       9.80930500      13.91503900      -2.80681589      -0.65680902      -0.34670887
H       14.71535800      10.36601900      14.69945400       0.07237507      -0.07939979       0.18165868
H       13.80403200       9.45466900      13.81696900       2.63088696       0.72704514       0.43315383
O       11.53617400      14.10684800       9.56073200       1.39240550      -0.34392611      -1.06668794
H       12.28594800      13.53776400       9.26925400      -0.71177145       0.85526699       0.08478604
H       11.13857100      13.53994200      10.20839100      -0.60679088      -0.50670739       0.96806505
O        8.86809500      12.79872900      13.31902200      -0.73525195      -1.91384007      -1.19941627
H        8.41416500      11.90584600      13.31145300       0.94958622       1.50498193      -0.07631991
H        8.73559200      13.10636800      14.19417200      -0.16517688       0.53367158       1.35791384
27
Properties=species:S:1:pos:R:3:REF_forces:R:3 REF_energy=-18720.694942524784 charge=0 spin=1 external_field="0.0 0.0 0.0" config_type=ORCA_DFT source_file=C_DFTprod_cutcluster_0205.out orca_step=0 pbc="F F F"
O       13.56564200      10.50808700      10.21609000      -0.18142117       0.11820180       0.83314100
H       12.69253300      10.27523100      10.60013100       0.73621832       0.21134804      -0.17469645
H       14.12147400      10.72277500      10.99484000      -0.50352791      -0.23976336      -0.61955908
O       13.80077900       9.46418600      13.52418800       0.44732498      -0.98940726      -0.29868271
H       14.58040300       8.88454500      13.37080500      -0.78905799       0.81505648       0.26915148
H       14.09839400      10.27835800      13.95865400       0.24731613       0.26737007      -0.11050165
O       11.68121800      10.34416300      16.68919700       0.53636270      -1.58640599      -0.39098825
H       11.89839500       9.39586900      16.46207400      -0.34594160       1.67867775       0.33830033
H       11.27544900      10.71132700      15.88588800      -0.09868728      -0.09843562       0.11097057
O       15.74950000      14.60200900      14.81201300      -0.20318257       0.96094972      -0.24378338
H       15.11371000      13.98767000      14.44246900       0.05803479      -0.76213026      -0.12452738
H       15.47592000      15.42099700      14.37099200       0.39263258      -0.02655256       0.34492925
O        9.87853000      11.36566100      14.74066500      -0.06420261       1.88422553       1.06171466
H        9.47392500      10.51014300      14.56898000      -0.55394016      -0.55973851      -0.22777199
H        9.31319300      11.88715400      15.37129500       0.78945209      -0.98512925      -1.03377016
O        9.03551100       9.12733200      13.62355700      -0.48357332      -1.54975872       1.39408001
H        9.28210600       8.23199700      13.96095600      -0.36896279       1.10627687      -0.37168323
H        9.53837400       9.21682300      12.82749700       0.87881233       0.23377207      -1.00959947
O       11.44202200       9.44197300      11.95065500       0.86525285      -1.73314107      -0.95721895
H       11.62247800       8.66762900      11.32467700      -0.41683710       1.50786100       1.33057195
H       12.21806500       9.41553300      12.57616500      -0.48626476       0.06982109      -0.38515900
O       12.03859700      12.29356300      12.89660400      -0.37610604       0.43978805       1.55291742
H       11.21395100      12.04558400      13.37939700       0.55316250       0.04166715      -0.59192332
H       12.00000000      12.00000000      12.00000000      -0.32631436      -0.39083846      -0.80301713
O       14.46131400      12.19189300      14.20742100      -0.67833152       0.10506608       1.71982410
H       14.33221600      12.24775800      15.19991900       0.21954276      -0.12653814      -1.59254738
H       13.58941200      12.46016900      13.83372100       0.15223914      -0.39224244      -0.02017128
27
Properties=species:S:1:pos:R:3:REF_forces:R:3 REF_energy=-18719.690915309802 charge=0 spin=1 external_field="0.0 0.0 0.0" config_type=ORCA_DFT source_file=C_DFTprod_cutcluster_0206.out orca_step=0 pbc="F F F"
O        9.58768000      10.81882400      12.19657600       2.12398570      -1.77040017       1.39138899
H        9.95562500      10.57025900      13.14189000      -1.34320939       0.97465566      -2.12032091
H       10.23639900      10.35413800      11.59513000      -1.17677858       0.95259755       0.56269322
O       14.37243000       9.23485000      12.36722500      -0.09602824      -1.04806282      -1.89007109
H       14.34925600      10.00624000      12.95564000       0.53186662       0.64043793      -0.54124559
H       14.72519800       9.41361300      11.45021000      -0.43144307       0.24163646       2.03962287
O        8.95699400      13.33973100      11.76168000       0.51836447       0.71811673       0.10947434
H        9.65762300      13.99826700      11.86899400      -0.28647953      -0.04968200      -0.30618992
H        9.39711900      12.48435300      11.93508800      -0.41604468      -0.27503900      -0.02740256
O       13.34157200      15.17168600      11.76489900       0.50916681       0.09083970      -2.03569689
H       13.59869500      15.27965100      10.79336900      -0.57193176      -0.31900086       2.13220984
H       13.16772100      14.22188400      11.88900900      -0.00674812       0.24639033      -0.03265132
O       12.18301300      12.63747600      12.68394000       1.35884448       0.31967988       0.45224433
H       11.37657400      13.00612800      13.03311200      -0.73623041      -0.16187667       0.23652932
H       12.00000000      12.00000000      12.00000000      -0.65345425      -0.36632592      -0.60841731
O       11.71023700      10.62433700      10.43329500       0.08707293       0.21068120      -1.07045806
H       12.26813700       9.88815200      10.70176300       0.29371436      -0.17488403      -0.17861136
H       11.71976000      10.67849800       9.44605900       0.04708179      -0.18702139       1.30456278
O       10.38159700      10.07392400      14.62666500       2.19564256      -2.46324480      -1.01280939
H       10.75485800      10.47338000      15.42139200       0.10565152      -0.06424179      -0.19322361
H       11.07660600       9.37814100      14.25822100      -2.01855139       2.15945202       1.57100771
O       14.39683300      11.40681500      13.92462300      -0.44483004       0.56008319      -1.04214728
H       14.28792700      11.04608500      14.77654600       0.31205178      -0.76737578       1.85511489
H       13.50560700      11.76516100      13.76690800       0.03681152       0.52139991      -0.57223078
O        9.89973000      13.60338800      14.76327100       0.42534606       0.73210327      -0.28616149
H       10.36196800      13.83821200      15.59518600      -0.42627382       0.25855170      -0.96225322
H        9.81991700      14.40515100      14.18225400       0.06240274      -0.97947031       1.22504246
27
Properties=species:S:1:pos:R:3:REF_forces:R:3 REF_energy=-18719.28018180155 charge=0 spin=1 external_field="0.0 0.0 0.0" config_type=ORCA_DFT source_file=C_DFTprod_cutcluster_0208.out orca_step=0 pbc="F F F"
O       11.82782000      16.27546100      12.37024200       0.46927526       0.51485604       0.14173377
H       12.29130200      15.76693800      13.05428600      -0.10995195      -0.07699580      -0.37083754
H       10.99318900      15.85078600      12.20910500      -0.42752296      -0.37417036      -0.06842575
O        8.89966300      12.63208400      10.91952500       1.67996027      -0.70027923       0.00553841
H        8.21813200      12.97629300      11.48089400      -0.22131873       0.19926056       0.64854380
H        9.74180500      12.47615200      11.44587800      -1.52208753       0.60724201      -0.74825895
O       13.07559500      11.05561200       8.74851300      -0.95291919      -1.73456618       0.85006734
H       12.68087600      10.32817100       9.30623600       0.52659632       1.10345446      -1.04893386
H       13.66581400      11.49270000       9.37064800       0.06675870       0.34651043      -0.12252799
O       14.39981800      12.75659500      10.32320100       2.34425254       0.02796291      -0.84019215
H       13.75573400      13.30070600      10.73478600      -0.98312601       1.12040297       0.49636606
H       15.06547000      13.33802500       9.86545400      -1.26407741      -0.73336609       0.73685344
O       13.57224900      14.83765700      14.01151600      -0.02290833       0.30400094       0.61142566
H       13.40550600      15.22687000      14.89555600       0.17325359      -0.70315126      -0.68321703
H       13.36841800      13.89202700      14.01338000      -0.04245750       0.33513566       0.26930060
O       10.76607600      12.73939000      15.08982300       2.99661212       2.31527363       1.73409788
H       11.51314900      13.01328300      15.78313500      -2.61386255      -0.99904268      -2.24030911
H       10.53226000      11.86089800      15.32446300      -0.34152357      -1.32583578       0.42250767
O       16.41940200      10.62825100      10.14761900      -1.03218425       1.24626969       0.88870187
H       15.51273300      10.87999000      10.48373900       1.33235594      -0.49513439      -0.65514002
H       16.90205500      11.46448500      10.31607000      -0.17679673      -0.81560772      -0.18996021
O       11.51817600      12.78773200      12.15623900      -0.54489388       1.43946152      -0.25922332
H       11.28070000      12.83582900      13.08495500      -0.00314523      -0.24152631       0.50502486
H       12.00000000      12.00000000      12.00000000       0.62368241      -1.47272204      -0.05828578
O       12.78797900       9.34395200      11.99323500       0.77429806       0.38360101       0.66949927
H       13.56396700       9.43234600      12.57543700      -0.40000619       0.33121797      -0.20938942
H       12.90098200       8.43456600      11.73139600      -0.32826320      -0.60225196      -0.48495966
27
Properties=species:S:1:pos:R:3:REF_forces:R:3 REF_energy=-18719.35937390671 charge=0 spin=1 external_field="0.0 0.0 0.0" config_type=ORCA_DFT source_file=C_DFTprod_cutcluster_0209.out orca_step=0 pbc="F F F"
O       14.39152700      13.79429300       9.23595000      -0.43888426      -0.25594696       0.25360309
H       14.45834100      13.41607700      10.10891900       1.08095937      -0.05912550       0.89436725
H       13.50553700      13.45592000       9.09891200      -0.66019548       0.25713301      -1.15120530
O       10.81008000      11.00197800      14.38317800       0.30321767      -2.14530313      -0.84427059
H       11.24015000      10.23788300      13.92009400      -0.13322861       1.12829873      -0.00492063
H       10.45111800      10.46665000      15.09830000      -0.43535280       0.51267240       0.57998883
O       13.15909000       8.59494800      14.29794500      -0.47694085      -0.17627819      -0.68081444
H       13.45820600       9.15641700      13.57017500       0.15216396      -0.02504975       0.39857542
H       13.52301100       8.93757600      15.11134100       0.27348312       0.32505133       0.18083506
O       10.88809000      13.79919200       8.74661000      -0.57584436      -1.59082006      -0.47666914
H       11.24417100      13.92087100       9.62136800       0.09868368       0.11364652       0.69730123
H       10.52039400      12.87583500       8.79808700       0.50172783       1.40851290      -0.08704810
O       12.67012400       8.73574100      10.68627400       0.83995818      -1.33840446       1.61283467
H       12.17673300       8.39240300       9.95317800      -0.48813107      -0.06785810      -0.74112831
H       12.87668300       7.90277400      11.20052700      -0.28385233       1.42797389      -0.74363868
O       11.94259100      13.04526700      15.68414100      -0.48755638      -0.95952081      -0.74702755
H       12.64099200      13.41839200      15.13914000       0.13002065       0.30903876      -0.06963617
H       11.55232500      12.33845400      15.09028600       0.62336858       1.08601560       1.07601771
O       15.45335300      11.98046800      11.76320200      -0.85700197      -1.82173656      -0.87650266
H       15.32758300      11.10744800      11.28198200       0.03189670       1.57425316       0.85413272
H       16.37010600      12.17153600      11.59124800       0.62256316       0.34233619      -0.00681692
O       13.66279400      14.15065400      13.44252000      -0.79368876       2.18291920      -1.96075000
H       13.43224100      14.89374500      12.75525900       0.64796175      -2.17117625       2.04517635
H       14.09370400      13.47401100      12.91296500       0.29307477      -0.14948323      -0.15094706
O       11.19927200      12.35195600      11.52741700       1.83147215      -0.67218299       0.92152504
H       12.00000000      12.00000000      12.00000000      -0.54622376       0.11742383      -1.36617140
H       10.81401700      12.65580300      12.34324400      -1.25365112       0.64761059       0.39318958
27
Properties=species:S:1:pos:R:3:REF_forces:R:3 REF_energy=-18719.079883822153 charge=0 spin=1 external_field="0.0 0.0 0.0" config_type=ORCA_DFT source_file=C_DFTprod_cutcluster_0210.out orca_step=0 pbc="F F F"
O       13.25439800       8.65703900      11.59878600       0.50208691      -1.04979631       0.50531000
H       12.55427900       9.25939000      11.41390400      -0.55307796       0.82993648      -0.11670948
H       14.06906600       9.04401700      11.24570800      -0.20716017      -0.11266894      -0.19145742
O       12.14936100      13.03715000      15.11238400      -0.20980404       0.38772624      -0.19571573
H       12.70710600      13.70706200      15.50758100       0.23679857       0.20627649       0.11795945
H       11.25222600      13.36911100      15.20172800      -0.10529697       0.00940808       0.05231069
O       15.67892000      10.07316900      13.91989500       0.73763063       3.02467992      -2.00546746
H       14.74868800       9.88912700      13.88966300      -0.90510927      -0.49484334       0.22644782
H       15.73515200      10.90383500      13.26734300       0.18419297      -2.95310339       2.13440315
O       12.75562500      11.52158900      12.28450900       1.37965175      -1.08329552       1.15417262
H       12.66426400      11.21397400      13.22837000      -0.18802731       0.52879415      -1.31446713
H       12.00000000      12.00000000      12.00000000      -1.10204560       0.63305475       0.13948359
O       15.27445500       9.56774800       9.93630500      -0.32314738       0.90896361      -0.25180507
H       14.61632600      10.16617100       9.48661800       1.34817995      -0.70312740       0.99826204
H       15.77294200      10.08216100      10.61809300      -0.82585182      -0.05336140      -0.87589665
O       12.63763400      10.45808600      15.46892200      -1.93955347      -0.77991757      -0.62821537
H       12.53690400      11.42939900      15.45360300      -0.09660741      -0.41544140       0.16182859
H       11.69730900      10.10744600      15.33642200       2.05552627       0.68445980       0.36230405
O       11.43715800      12.36436100       8.40302200       1.52599010      -1.76939564      -0.79203955
H       11.70794700      12.28683000       7.45500000      -0.58885209       0.49353445       0.90696658
H       11.94618500      11.57434600       8.74328000      -0.96576391       1.24577193      -0.06924130
O        8.03329400      10.86229700      11.21328300       0.36624910       0.65289565      -0.82891961
H        8.09153400      11.14296500      10.26369500       0.06067454      -0.25119623       1.42900680
H        8.58515300      11.48307600      11.72648000      -0.41729861      -0.38749700      -0.62035674
O       16.13915300      11.66107300      11.71228700       0.73771866      -0.39661511      -0.38445410
H       16.93704000      12.02318300      11.31941900       0.29286441      -0.03133769       0.05262575
H       15.57168700      12.40558100      11.82104400      -0.99996786       0.87609529       0.03366433
27
Properties=species:S:1:pos:R:3:REF_forces:R:3 REF_energy=-18719.940853774635 charge=0 spin=1 external_field="0.0 0.0 0.0" config_type=ORCA_DFT source_file=C_DFTprod_cutcluster_0213.out orca_step=0 pbc="F F F"
O        8.99283900      13.98178300      12.76891000       0.36886715      -0.16089991      -0.13432930
H        9.86067400      13.52683600      12.70530800      -0.51389486       0.36001031       0.18351883
H        8.91507500      14.31958700      13.66563200       0.12108184      -0.11961477      -0.03348579
O       14.52717600      11.19441900      14.33382400      -0.53431076       0.99627175      -0.30310609
H       13.94414800      11.83148000      13.86261400       0.51776026      -0.19889151       0.60957050
H       14.42949000      10.38928100      13.83970500       0.08166755      -0.64741349      -0.33760135
O       11.74860000       9.36010100      14.79859700      -1.74195379       1.20396661       1.16749098
H       12.40752600       9.80029800      14.27853600       0.55069470       0.41283086      -0.37270899
H       11.17400700      10.12405400      15.13098300       1.13398863      -1.69513909      -0.79275267
O        9.26637100      10.46188000      12.91732200       0.41915289       0.87494616      -0.05600362
H        9.15035700       9.75050700      12.30194800      -0.19954009      -0.74063666      -0.33075260
H        9.68090700      11.15674300      12.37622000      -0.24334161      -0.00477356       0.41610084
O       11.75679100      13.61563900       9.30559700       0.45325739       0.25192097      -0.05092487
H       11.99040600      14.56086300       9.23619900      -0.09594612      -0.72474750       0.01010788
H       12.58550500      13.09470200       9.26172000      -0.37997637       0.42060685      -0.18674664
O       12.80435800      10.53544700      11.58660000      -1.34223875      -0.99355841      -1.29018378
H       13.48244200      10.84100800      10.95014900      -0.48756121      -0.15632437       0.12651901
H       12.03515400      10.14041300      11.04163300       2.02531442       0.86871016       1.25050337
O       13.15830900      13.89388800      13.73127700       0.60954644       0.25177751       0.11770233
H       13.79607800      14.61795400      13.80951200      -0.19641332      -0.27250060       0.05217396
H       12.76823800      13.96612100      12.85269300      -0.41737379      -0.11038590      -0.01714695
O       11.40000500      12.80396300      11.94921500       0.52314276      -0.36245086      -1.06202175
H       11.37005200      13.07790600      10.98359200       0.02289408      -0.37291941       1.19994489
H       12.00000000      12.00000000      12.00000000      -0.83175764       0.91742856      -0.19856055
O       14.24478800      12.13355400       9.65258800       0.58178556       1.07057520       0.19328465
H       14.87339400      11.76503900       9.00964300      -0.18037262       0.32181215       0.26738431
H       14.61921500      12.99927200       9.96906200      -0.24447269      -1.39060094      -0.42797666
27
Properties=species:S:1:pos:R:3:REF_forces:R:3 REF_energy=-18719.52275569352 charge=0 spin=1 external_field="0.0 0.0 0.0" config_type=ORCA_DFT source_file=C_DFTprod_cutcluster_0214.out orca_step=0 pbc="F F F"
O        9.51158300      11.78200300      14.16380900      -0.09356584       1.58291716      -0.27839475
H       10.21755600      11.43663800      13.59362200       0.51735361       0.17674603       0.01876468
H        9.60317700      12.76935000      14.02318400      -0.32888603      -1.77969162       0.26415104
O       14.35351200      10.81163600      13.90079000      -1.95071694       0.02197070       0.34518235
H       13.93933600      10.06463000      14.40069100       0.66284258       0.86682019      -0.63173799
H       13.53551400      11.34728100      13.65989600       1.32617444      -1.00402635       0.25194437
O       13.39050300       9.59110600       8.48087400       2.02946886       0.63343435       0.71834267
H       12.70934900       9.92762200       9.03236500      -1.99870149       0.27291079       0.53544127
H       14.10672700       9.96218400       9.05739100      -0.11438942      -0.91223770      -1.18313476
O       11.77054400      11.30789800      12.59946500      -0.09047049      -0.65430518       1.11946056
H       11.81313500      10.42222200      12.17724100      -0.17093554       0.47387620      -0.00551080
H       12.00000000      12.00000000      12.00000000       0.25165713       0.34396524      -1.13127334
O        8.26305700       9.86189700      12.18849300      -1.61680482       1.35717645       0.36804239
H        7.34348400      10.27101400      12.18726800       1.61662988      -1.00096591      -0.12301495
H        8.69906200      10.47318300      12.81878200      -0.11335799      -0.21752830      -0.19248370
O       10.47373400      10.57097300      10.07736500       1.67636571       1.15246977       2.65075495
H       10.24559300      10.15978300       9.30042900      -1.39112967      -1.22475886      -2.68711030
H        9.75480900      11.07885000      10.46933800      -0.14357617      -0.10657064      -0.17165411
O       13.52306900      12.54256700      10.03241900      -0.41349374       0.33915579       0.51885267
H       14.19944600      11.89960800      10.21093600       0.54433868      -0.30500865       0.29835690
H       13.44137700      12.55077500       9.08511400      -0.14547149       0.03266453      -0.64293278
O       11.13848000       8.68545800      12.29430300      -1.90788987      -0.53956661       0.54575423
H       10.48567300       8.56759900      13.05450400       1.26982213       0.21983175      -1.51961521
H       10.55376700       8.64484800      11.49421100       0.66324496       0.26335405       0.97642586
O        9.31797300      13.18638600      11.04621800      -2.09382898      -0.53380960      -2.28152363
H        8.77392500      13.33442300      10.16108100       2.21035914       0.20603830       2.95614305
H        9.93643700      13.88996600      11.25591900      -0.19503876       0.33513813      -0.71923073
27
Properties=species:S:1:pos:R:3:REF_forces:R:3 REF_energy=-18720.038034845235 charge=0 spin=1 external_field="0.0 0.0 0.0" config_type=ORCA_DFT source_file=C_DFTprod_cutcluster_0220.out orca_step=0 pbc="F F F"
O       11.20362500      11.68194800       8.77938800       1.05881559      -0.62664756       0.76685739
H       11.25744000      12.26497700       8.02979900      -0.00749158       0.39670562      -0.47530718
H       12.14539900      11.51422100       9.02683200      -1.08012561       0.27197023      -0.18548588
O        9.24646200       9.34931500      12.36681800       0.04157999      -1.17632396       1.65660349
H       10.06253700       9.03397300      12.84681000      -1.35148803       0.34661019      -0.82618586
H        8.48540600       8.91051500      12.84930700       1.31419691       0.78181303      -0.84061355
O       13.02019700       9.92275100      14.95193800      -0.19702550       0.01818999       0.04150830
H       13.93403200      10.03461600      14.64540600      -0.53143524      -0.10624005      -0.14266219
H       12.52689900       9.38861700      14.31326700       0.67417528       0.16407722       0.06424843
O       14.03265900       9.99173900       9.97516200       1.05030338       0.17605605      -0.96280652
H       14.05113000       9.67084200       9.04849700      -0.24755072       0.13321812       0.79270551
H       14.91917300      10.41026800      10.05869100      -0.80586504      -0.29365260       0.12612748
O       13.56009500      14.19077000      10.00474600       0.67197828       0.57327470      -0.64912220
H       13.20573500      13.49002700      10.53164600      -0.23481239      -1.11832285       0.92809838
H       12.78270800      14.67170300       9.74509500      -0.39686898       0.51268397      -0.25851004
O       10.71632000      11.79058400      13.18420600       0.93979340       0.65032964       0.75017993
H       11.08392400      11.55884700      14.06316000      -0.42296126       0.02003054      -0.76177946
H       10.02252000      11.19449500      12.93161000      -0.75394155      -0.58266339       0.12545313
O        8.40603500      11.63261400      10.45665800       1.87876456      -1.17203371       0.27594588
H        9.27831800      11.79221100      10.02902700      -0.80409247       0.46749776      -0.15273814
H        8.70851000      10.81869600      10.93180800      -0.97757386       0.64964300      -0.21217717
O       14.55856400      13.16408700      13.65100400      -0.94461520      -1.22423570      -0.61991158
H       13.96216600      12.63012400      13.03229300       1.08161402       1.13290054       0.85375240
H       14.81959500      13.94472500      13.16175400      -0.06453588       0.08480224      -0.23924677
O       12.90919400      11.96100900      11.69197300       1.07660099      -0.12587505      -0.81843316
H       13.06522100      11.15764300      11.15753600      -0.30064127       0.39878106       0.37427315
H       12.00000000      12.00000000      12.00000000      -0.66679786      -0.35258888       0.38922617
27
Properties=species:S:1:pos:R:3:REF_forces:R:3 REF_energy=-18720.691853384567 charge=0 spin=1 external_field="0.0 0.0 0.0" config_type=ORCA_DFT source_file=C_DFTprod_cutcluster_0222.out orca_step=0 pbc="F F F"
O       10.72053700      12.43944500       9.66726000      -0.58143019      -0.31707484       0.12117620
H        9.98172000      12.12510600      10.24321300       0.83366453       0.10342001      -0.56490380
H       11.36878300      11.71761400       9.65059600      -0.31345483       0.30825277       0.24565561
O        8.79773100      11.54656200      11.56849600       0.64333562       0.00365308       0.35432308
H        8.89653600      10.57300300      11.47547000      -0.67105957       0.48235370      -0.27191465
H        8.03762800      11.91315900      11.11037000      -0.18934150      -0.62053615      -0.05334844
O       14.68835900      13.30728200       9.91747300       0.00641470       0.08337337      -0.14280530
H       15.00174600      14.09305600      10.36873500      -0.00628568       0.18256171       1.06903942
H       15.03616900      13.45601500       9.04584600       0.06513613      -0.25310877      -0.82231923
O       11.50105700      12.60004300      12.57983300       0.02841599      -0.19852250       0.51475582
H       10.58880300      12.67360000      12.25208800       0.52581542      -0.20802936      -0.11039331
H       12.00000000      12.00000000      12.00000000      -0.46165642       0.22475367      -0.25160601
O        9.60012800       8.76654500      11.37575700       0.31831319      -1.52376728       0.39172940
H       10.37257100       9.02825100      11.91754200      -0.01181571      -0.20665140      -0.06429322
H        9.57671200       7.77113300      11.48919100      -0.12557449       1.86705067      -0.22808340
O       11.72828000       9.37915600      13.26327800       0.75716675      -0.26618371      -0.33562355
H       12.69987000       9.43208000      13.03867300      -1.78259727       0.58636321       0.48830169
H       11.35955700      10.21745500      13.59674600       0.92875828      -0.14129241      -0.28193079
O       15.55848600      14.76082400      12.42291000      -1.05022733      -1.85447777       0.57938395
H       14.86695700      14.34582700      13.02562500       1.11603611       0.20313491      -0.75655549
H       15.37085400      15.66774400      12.55214500      -0.06748771       1.65994032       0.08240371
O       13.16737200      11.13555700      10.61574900      -0.34568269      -1.74752758      -0.98227497
H       13.56333600      11.95145000      10.33179100       0.73001224       1.41349492       0.05047708
H       13.31770800      10.58965300       9.80922000      -0.24277505       0.15882945       1.07666264
O       13.59675000      13.59150500      14.14603000      -0.44987747      -0.32930265       0.57551305
H       12.81031400      13.38008500      13.61241200      -0.10061926       0.05150969      -0.24347593
H       13.35732700      13.21780800      15.01296600       0.44681611       0.33778292      -0.43989362
27
Properties=species:S:1:pos:R:3:REF_forces:R:3 REF_energy=-18719.845451616067 charge=0 spin=1 external_field="0.0 0.0 0.0" config_type=ORCA_DFT source_file=C_DFTprod_cutcluster_0226.out orca_step=0 pbc="F F F"
O       13.02077500      11.09436200       8.65225300       0.00395477      -0.39420254      -0.22155768
H       12.66011600      11.66434600       9.34158900       0.09410860       0.05443252       0.09397285
H       13.25347200      11.62412300       7.88629400      -0.07196349       0.17708798       0.17036316
O       14.16888000       9.62495200      11.72912900      -1.42183502       1.09911994       2.00740437
H       14.15212200       9.06512100      10.98137000      -0.17394198      -0.78326473      -1.34147297
H       13.22257000       9.67982700      12.06322600       1.78352858      -0.33017451      -0.72460192
O       11.98219100      12.33062100      11.09206200      -0.05972627       0.84944570      -0.54514050
H       12.00000000      12.00000000      12.00000000       0.16642917       0.24093789       0.12498144
H       12.31562400      13.25130200      11.09609200      -0.04442193      -0.93199936       0.39174606
O       10.05737800      14.09082900      12.58048300      -0.22357975      -0.10841998       0.96185748
H       10.41767800      14.30239400      11.71792500      -0.21083053       0.40957702       0.00158025
H        9.65177500      14.86605700      13.00979000       0.37910703      -0.28875542      -0.77331405
O       12.81321300      15.07796200      14.29551500      -0.34700027       1.44260223      -0.38794170
H       13.16720400      14.26454700      14.60208600       1.44007195      -1.17606942       0.95970104
H       12.00117000      14.76530400      13.93045400      -1.19819854       0.08376351      -0.64257370
O        9.50993400      10.39938000      10.42973600       0.48012172       0.70305942       0.25975343
H        9.77589500      11.29350800      10.14867700       0.12549180      -0.49291137       0.33367820
H        8.85761800      10.14810300       9.78732000      -0.47765968      -0.30735869      -0.42693922
O       12.00523400      11.50622500      14.19827000      -2.32064431      -0.86620919      -0.23529293
H       11.82303200      10.53142100      14.11177200       0.45292968       0.96143242       0.02127341
H       11.09964200      11.89435500      14.35189400       1.38123575      -0.39312566      -0.24362238
O       14.15293100      12.80992200      14.98917000      -0.01859885      -0.87802742       1.53506214
H       14.06455900      12.33411400      15.86599500       0.20527735       0.91375188      -1.54923221
H       13.47345100      12.36958200      14.44773600       0.33449546      -0.19094474       0.23344611
O       11.79501600       8.76548300      13.14531200      -1.16412047       0.18329247      -0.62382845
H       12.11696100       7.86312700      13.17495000       0.27598609      -0.16878918       0.14355864
H       11.01783300       8.71830300      12.54420100       0.60978318       0.19174919       0.47713919
27
Properties=species:S:1:pos:R:3:REF_forces:R:3 REF_energy=-18719.45937948182 charge=0 spin=1 external_field="0.0 0.0 0.0" config_type=ORCA_DFT source_file=C_DFTprod_cutcluster_0227.out orca_step=0 pbc="F F F"
O        8.41864500      12.01392100      10.34747700       0.33268226      -1.49751992       0.30111420
H        8.70957300      11.06485500      10.27401900      -0.39617535       1.49412303       0.01464418
H        9.11107100      12.44731100      10.85965000       0.12637122       0.01442343      -0.41121903
O       11.60056100      10.38510600      12.52339700       1.14549807       0.52906437      -0.91533851
H       10.72765700      10.25518300      12.84570700      -1.25011154      -0.63123991      -0.09422544
H       11.80543200       9.86996800      11.71941100      -0.16233330      -0.17011073       0.21662836
O       12.60938800      10.07294500      15.05335700      -0.80703304      -1.06878550      -2.13371790
H       12.30317100      10.86250500      15.46133100      -0.32110407       1.30173245       0.94433351
H       12.10578100      10.10472500      14.17885100       1.57836225      -0.28466084       1.70222186
O        9.34495800      12.99879400      13.88821100      -0.32459882      -0.65983727      -1.83159927
H        9.18736300      12.22453700      13.27730200       0.02744663       1.18302507       1.06606173
H        9.04300700      13.76359800      13.35321900       0.11675463      -0.51077863       0.60508418
O       12.22025200      12.98258700      11.91224500      -0.92142662      -1.04899289       0.55871541
H       12.00000000      12.00000000      12.00000000       0.49278497       1.16654975       0.18012656
H       11.45261300      13.41124600      12.32044500       0.29147226      -0.03705577       0.23967275
O       13.18192000       9.41098300      10.06197000       1.44134558       0.85398735      -0.13472720
H       14.13779300       9.32072000      10.38801200      -2.06809038       0.49253532      -0.86942246
H       13.15885600      10.14194200       9.37896800       0.38291514      -1.19118241       1.23898473
O       11.60703800      12.85457300      15.65531400       1.56313658       0.54951930      -0.43796385
H       12.42627300      13.28385900      15.26007100      -1.83514513      -0.83782442       0.52942088
H       10.88433300      12.86814300      15.00760300       0.33096842       0.33012576      -0.02837110
O       15.00659800      12.78760800      11.87052900      -1.44293112      -0.56257402       1.04224585
H       14.16318000      13.07053400      12.31686800       1.10456066      -0.46242857      -0.81947579
H       15.41127400      13.58967600      11.58987400       0.51287470       0.94506519      -0.34757764
O       11.49922800      13.56608100       9.45097600      -0.06232319       1.00205205      -0.59645422
H       11.71090000      13.37282000      10.39220700       0.49103400       0.54970313      -0.74007914
H       11.79644100      14.47873200       9.20044500      -0.34693471      -1.44891537       0.72091727
27
Properties=species:S:1:pos:R:3:REF_forces:R:3 REF_energy=-18719.853558704304 charge=0 spin=1 external_field="0.0 0.0 0.0" config_type=ORCA_DFT source_file=C_DFTprod_cutcluster_0228.out orca_step=0 pbc="F F F"
O       10.12160900      12.34621500       9.82103100      -0.25831119      -0.89344489       0.51292165
H       10.42552200      12.97699100      10.47918400       0.14764011       0.42579071      -0.06679192
H       10.22248800      12.74235000       8.96555300       0.05238772       0.42816013      -0.46185239
O       12.03933300       9.58751800       9.74741000       0.92643575       0.62625938       0.40189559
H       11.15870000       9.91549500       9.96256300       0.15472679       0.11593095      -0.01149479
H       12.67897200      10.19171000      10.20191600      -0.93052709      -0.69177850      -0.68400759
O       15.16680800      11.04850800      13.16402300      -1.97906752      -0.76246152      -1.33555989
H       14.26321500      11.34723000      13.42149200       1.02469499       0.46259600       0.60859672
H       14.83459500      10.45644800      12.44074900       1.10135146       0.36089267       0.67957897
O       13.03166200      12.76895600      14.12645600       0.00602286       0.25675928      -0.20527555
H       12.41618000      12.47204400      13.38665500       0.24815523       0.51907147       0.88419550
H       12.77316000      13.61408300      14.51671600      -0.24938705      -0.44064315      -0.08885193
O       12.00000000      12.00000000      12.00000000       1.22526280       2.00237498      -0.50741244
H       12.50652600      12.50262200      11.29224800      -0.94880162      -1.26746422       0.72069698
H       11.55535200      11.23955400      11.67420600      -0.62872800      -1.05662429      -0.56854803
O       13.90795200      14.88003100      12.11926000       0.34763421      -0.28599894      -0.15062264
H       13.55689100      14.17338200      12.66769800      -0.61137506      -0.20441814       0.87346577
H       14.66970700      14.38189000      11.80989100       0.51213437       0.41516881      -0.40609451
O       10.40549000       9.44474100      12.37900400      -0.18029142       0.46661248      -0.76013498
H        9.51331800       9.56719600      12.01725800       0.30636296      -0.17079937       0.39882693
H       10.32328500       9.01825900      13.22807100      -0.19097004      -0.13812533       0.31847141
O       11.77691400      14.88309000      10.42473600       0.00989726       0.21999780       2.50285059
H       12.04487000      14.79325600       9.54478600       0.68670499      -0.05716298      -2.03744525
H       12.60973300      15.03619700      10.96037900      -0.85814251      -0.20928982      -0.59870034
O       13.89269900      12.35328400       9.93584800      -0.81126127       0.54295465      -1.80305112
H       14.83730000      12.42744100      10.08057200       0.25363487      -0.00067970      -0.17736736
H       13.69542600      12.64086700       8.98840600       0.64381647      -0.66367845       1.96171057
27
Properties=species:S:1:pos:R:3:REF_forces:R:3 REF_energy=-18720.092481378295 charge=0 spin=1 external_field="0.0 0.0 0.0" config_type=ORCA_DFT source_file=C_DFTprod_cutcluster_0231.out orca_step=0 pbc="F F F"
O       15.05173500      12.30831800      13.46050600       1.43612027      -0.41388125      -1.27474662
H       15.98184800      12.02651900      13.60870500      -0.90327437       0.27433580       0.31690068
H       15.08098300      12.43610000      12.47983500      -0.60522395      -0.14133525       0.90444891
O       12.05028900       9.44435800      13.92128200       1.67302477       2.59380018       0.06174849
H       12.26929000      10.43909500      14.08746300      -1.20463150      -2.06674487      -0.46845940
H       12.97676100       9.14823000      13.86429400      -0.44011571      -0.42245707       0.09689064
O       10.93532800      13.30992400       8.94922300       0.13150283      -0.16825491      -0.36519680
H       10.57414100      12.41791200       9.16950000      -0.17853819       0.63063339      -0.62369213
H       10.88679100      13.51134400       7.99372300      -0.16267320      -0.56399826       0.93625248
O        9.60800800      10.90570200       9.72671500      -0.09428555      -0.04039075       0.42556270
H        8.89264300      11.00652600      10.38425300       0.62648358      -0.05246254      -0.46859480
H       10.37383700      10.51331100      10.20579500      -0.57620632       0.26914310       0.09690267
O       11.68671600      12.40671400      12.84158000      -0.64711982       0.14250047      -0.85526545
H       12.00000000      12.00000000      12.00000000      -0.39745746       0.66615807       0.78119324
H       11.02613100      13.10373200      12.58011600       1.17672356      -0.83659060       0.06823647
O       11.90073300      10.01106200      10.91745000       0.31488514      -1.20925141      -2.15433393
H       11.89624000       9.57032400      11.76761300      -0.08164960      -0.24275180       0.92149470
H       11.99176300       9.28089600      10.23212400      -0.06801412       1.23666611       1.38775556
O       14.68591500      11.52764200      10.37183100       1.95215871       0.17037637      -1.71469289
H       15.52847100      11.72839200       9.81611200      -2.38189858      -0.62126352       1.33438696
H       14.12758900      10.94920300       9.81111200       0.49432198       0.58114551       0.50944557
O       13.56925600      14.59848500      14.19207900      -1.29808771      -1.02319706       0.14287272
H       12.58267800      14.41342400      14.23608500       2.02584648       0.13815459      -0.19878311
H       14.00963400      13.70951700      14.12043500      -0.70629160       1.06858506       0.00019772
O       11.44739300      14.95441800      11.12201800       0.64517987       0.03927725       0.14009176
H       11.29267200      14.37721900      10.34256900       0.42460183       0.42115167       0.22281197
H       12.41344800      15.12339000      11.21872100      -1.15538134      -0.42934824      -0.22342811
27
Properties=species:S:1:pos:R:3:REF_forces:R:3 REF_energy=-18720.27991665345 charge=0 spin=1 external_field="0.0 0.0 0.0" config_type=ORCA_DFT source_file=C_DFTprod_cutcluster_0234.out orca_step=0 pbc="F F F"
O       11.04903000      13.99773400       9.84616500      -1.31471257       0.59921595      -1.36327104
H       11.55349700      13.56357600      10.50450900       0.61726988      -0.92643477       1.40055718
H       10.21980300      13.48780600       9.75433200       0.79546467       0.13762967       0.15825054
O       10.24274800       9.87909000      12.27541000      -0.46026761      -2.22710109       1.03768811
H        9.71724100       9.80540300      13.10414000       0.21899291       0.64536144      -0.68248746
H       10.50604100       8.92204500      12.19512900       0.04103486       1.37670094      -0.33960671
O       13.04547300      11.22297300      14.75558600      -0.61347539      -0.66140261       0.65853917
H       13.37887000      10.30465300      14.81912800      -0.33329984       0.79511099       0.07001742
H       12.33668000      11.31833200      15.44256700       0.94411980      -0.07895478      -0.82898646
O        9.16777400      11.38787500      10.08531900      -1.06571483      -0.39792257      -0.56626896
H        8.32641800      11.29477900       9.56527500       1.28922337      -0.11267629       0.80347813
H        9.30495200      10.54960000      10.57962100      -0.18815977       0.73453281      -0.33047317
O       12.00000000      12.00000000      12.00000000      -0.05797370      -0.16506664       0.32191808
H       12.61392500      11.84912000      12.73207200       0.33599785       0.19781128       0.04237101
H       11.35698100      11.28870400      12.16947900      -0.04653579       0.10149035      -0.37709797
O        7.59570800      12.58482100      12.23273000      -2.01120662       0.55494875       0.00383773
H        8.30451200      12.58014300      11.60640900       0.86879434      -0.19684018      -0.77572178
H        6.81330900      12.89048500      11.70253000       1.13051255      -0.41393427       0.88900804
O       13.42159800      10.62205500       9.68263200       0.58170879      -0.10695898      -0.53916690
H       14.08713000      11.23373800       9.32474900      -0.36008524      -0.21630970       0.16248900
H       12.95264900      11.13681000      10.33856200      -0.26879991       0.35626535       0.44379090
O       10.98370000      13.22490600      14.98448300      -1.72354330       1.03784505       0.65970722
H       10.16612200      13.67136500      14.66155600       0.70263503      -0.28867942       0.76277309
H       11.26836400      12.84854600      14.17823200       0.98233282      -0.75809553      -1.52331060
O       13.11817500      13.17221200       7.91112700       0.14127735      -0.45216339      -0.14159174
H       12.48932500      13.49394700       8.57245000      -0.25040721       0.07051030      -0.08788381
H       12.82468100      12.26876400       7.71280500       0.04481757       0.39511729       0.14144092
27
Properties=species:S:1:pos:R:3:REF_forces:R:3 REF_energy=-18719.794066999755 charge=0 spin=1 external_field="0.0 0.0 0.0" config_type=ORCA_DFT source_file=C_DFTprod_cutcluster_0236.out orca_step=0 pbc="F F F"
O        9.64453400      10.25777000       9.80825600      -0.42664848       0.02731160       0.58161551
H        9.29978000      10.40029000      10.72325800       0.54309504       0.04246949      -0.90566833
H       10.48059300      10.73239000       9.75160900      -0.06240716      -0.12748091       0.17322413
O        9.37952200      11.45589400      12.35983200      -2.63728577      -0.43524039       1.86367239
H       10.30759800      11.61674300      12.35657500       1.79182784       0.13567044       0.24245433
H        9.05682900      11.37423200      13.31300600       0.82053082       0.26301595      -1.89973834
O       14.34140800      10.52378200      11.76714900       1.35853425       1.11232688      -0.66682167
H       15.08500200      10.69113900      12.41560400      -1.22777775      -0.11682353      -1.40422296
H       14.51762200      11.01359000      10.88966200      -0.20999168      -1.12917511       1.99262809
O        8.30808900      13.87607200      11.36966600       0.89737647      -0.54177015      -0.09755594
H        8.85587300      13.09688500      11.64180500      -0.82335553       0.45865507       0.00504486
H        8.43855200      13.88524500      10.41358600      -0.21813513       0.11845521       0.07990552
O       12.00000000      12.00000000      12.00000000      -3.07189562      -1.67797368      -2.13545401
H       12.28142000      12.73708500      12.45588200       1.94460003       1.94663974       1.69276791
H       12.58432000      11.25477700      11.92733500       1.37403059      -0.32072211       0.55201651
O        9.86006600      12.74361000      15.45690900       0.16768068       2.06078773      -0.95413702
H       10.67170700      12.38313500      15.10543700       0.48245649      -0.66604664       0.04043363
H        9.93248500      13.66773900      15.06919500      -0.60992691      -1.46479568       0.84221931
O       13.09694000      14.43929600      13.01485200       0.32465872      -0.11814019      -0.10052927
H       12.39053600      14.79363500      12.46593400       0.31795637       0.39440216      -0.18556270
H       13.97360100      14.64411300      12.63828600      -0.81465919       0.04173096      -0.01207426
O       13.02717600      11.43936400       9.39184500       1.49259003      -1.17131416      -1.68290500
H       13.18465100      11.86527900       8.53733500       0.04354595      -0.34091386       0.08604244
H       12.51499200      12.05524900       9.84866600      -1.46707425       1.59608111       1.60179436
O       13.90180300      13.48730100      15.46982900      -0.87716333       0.09661954       0.29351191
H       13.20112800      13.54784000      16.14732500       0.63827034      -0.08928218      -0.30023807
H       13.46530100      13.84343000      14.67569700       0.24916722      -0.09448733       0.29757667
27
Properties=species:S:1:pos:R:3:REF_forces:R:3 REF_energy=-18719.5088530857 charge=0 spin=1 external_field="0.0 0.0 0.0" config_type=ORCA_DFT source_file=C_DFTprod_cutcluster_0241.out orca_step=0 pbc="F F F"
O       12.00000000      12.00000000      12.00000000       0.89815675      -1.35089750       0.55967181
H       11.84134500      12.68435200      12.64471900      -0.19104542       0.39343152       0.17890159
H       11.66877600      12.35235300      11.19343800      -0.64339733       0.52179581      -1.19499012
O       10.37324500      13.83762100      13.19593400      -0.06497075       0.17507219       0.57647053
H       10.58082600      14.81204200      13.24318500      -0.70782876      -1.72219476       0.83857729
H       10.08718800      13.36745900      14.03509800       0.59457583       1.80824429      -1.23933347
O       14.06270900      14.38761800      12.65918700       0.41963487      -1.01255424       0.69526563
H       14.36387000      13.63765400      13.24206100      -0.13450270       0.81192626      -0.57785070
H       13.14292900      14.47432200      12.91631800      -0.11894695       0.15421905      -0.08485711
O       11.84185700      12.58464700       8.87118500       1.16029400       0.31890259      -0.91637142
H       12.78967200      12.39692100       8.98719400      -0.21041812      -0.19461293       0.53002535
H       11.94691400      13.04044300       8.01160400      -0.80336305      -0.09907557       0.49608894
O        7.86227200      12.52499400      11.11327300      -3.62674260       0.95862380      -0.70673101
H        7.06764000      13.17869000      11.22751300       2.60231218      -1.79266021      -0.16729193
H        8.58942200      12.84953100      11.60314800       1.09383036       0.87477400       0.91785315
O       14.63273700      12.35011200      14.80459600       0.41757320       0.42195519       0.20677528
H       15.46714400      12.13731000      15.24285100      -0.10006796       0.23986389      -0.20452361
H       14.13077000      11.52960100      14.87550700      -0.16525767      -0.39991147      -0.22181346
O       15.80437400      13.67746800      10.01614200       0.73142728      -0.43571465      -1.03995603
H       15.59447800      12.74742600       9.90640200       0.35918021      -0.58707504      -0.36340031
H       15.15299700      13.86455700      10.65842500      -1.13610167       1.10815393       1.52348143
O       13.29965200       9.95733400      14.93915400      -2.81869824       0.43439187       0.22792322
H       12.73788000      10.11128700      15.74277000       1.11800742      -0.36072158      -0.47235596
H       12.54672700      10.02780900      14.28491600       1.48447244      -0.23205493       0.24308779
O       14.58017200      11.01782800      10.25514300      -0.85292852       0.71529484       0.54259444
H       14.43073500      10.35829300       9.57859700      -0.27982619      -0.21657278      -0.06681485
H       13.70995300      11.25562800      10.66772300       0.97463144      -0.53260349      -0.28042654
27
Properties=species:S:1:pos:R:3:REF_forces:R:3 REF_energy=-18719.88557544749 charge=0 spin=1 external_field="0.0 0.0 0.0" config_type=ORCA_DFT source_file=C_DFTprod_cutcluster_0244.out orca_step=0 pbc="F F F"
O       10.98286700      10.99745600       9.39876200       0.18160176       2.02295600       1.90310432
H       10.93819400      10.09650200       9.19930100      -0.13919090      -1.84503647      -0.92372920
H       10.89511600      11.54891500       8.63133200       0.14331561      -0.15630971      -0.89089683
O       14.20899400      14.08566400      11.72408300      -0.49953761      -0.44430301      -0.00296911
H       15.09025300      14.28732000      11.44412400       0.97836818       0.20717272      -0.01646344
H       13.97690200      14.78266700      12.33516400      -0.22385990       0.29697822       0.22847606
O        7.18229800      13.53489000      12.71089200      -1.40603106      -1.51262937      -0.58710297
H        8.04767900      13.56958300      12.25935100      -0.55231383      -0.41917464      -0.09627281
H        6.58956500      12.78439700      12.34621200       2.03222303       1.93641652       0.67935647
O       12.00000000      12.00000000      12.00000000       1.15824097       0.67192541       0.39728242
H       12.88499300      12.33256300      12.33216700      -1.53683214      -0.62576208      -0.86313030
H       12.09049700      11.74726600      11.06265600       0.01426875       0.03815132       0.30531744
O       11.52762400      12.92907300      15.17840000      -0.06803957      -0.24575773       0.16806068
H       10.57582800      12.95004200      15.30973800      -0.10065931      -0.18928468      -0.00216898
H       11.72453800      13.81028900      14.87201800       0.15241033       0.50944027      -0.18779344
O       13.80288000      13.64869800       8.90431200      -0.40051748       0.93995836      -1.93950323
H       13.77722900      14.61065300       8.71328600       0.04149679      -0.97979530       0.33234514
H       14.11354300      13.54741300       9.78270900       0.11888345       0.02406681       1.41566730
O       12.55586600      11.92056300       6.96391400      -0.77881122      -0.19232995      -0.51229815
H       13.06196500      12.44861600       7.55856600       0.32310855       1.25888954       1.21767110
H       13.24099700      11.32727100       6.69818400       0.37513833      -1.01999239      -0.69650994
O       10.01923800      15.89726100      13.78005700      -0.00825391      -1.20195667      -0.08599451
H        9.89327200      15.10682100      13.17235400       0.11570459       1.12529758       0.69288741
H        9.77100800      15.57985100      14.66300600      -0.03933891       0.24798626      -0.43057075
O        9.91737300      14.07015900      11.75749700      -1.24114276       0.52037440       0.35153580
H       10.59576500      13.40362200      11.88905200       0.88589197      -0.45854204      -0.53504825
H       10.03573900      14.65398200      11.00033400       0.47387636      -0.50873944       0.07874791
27
Properties=species:S:1:pos:R:3:REF_forces:R:3 REF_energy=-18719.740179696244 charge=0 spin=1 external_field="0.0 0.0 0.0" config_type=ORCA_DFT source_file=C_DFTprod_cutcluster_0248.out orca_step=0 pbc="F F F"
O        9.24539800      11.11058900      11.29951300      -2.42403254      -0.27812468      -0.75836221
H        9.71682600      11.10356500      12.11921100       0.36129401      -0.61651382       1.02386642
H        8.31305700      10.76249200      11.48414200       2.16765286       0.68947340      -0.24592732
O       10.63028200      13.73685300      14.78464600      -0.40969596       0.46230778      -0.75820120
H       11.03926800      13.24011200      15.47611800       0.71225898      -0.32565626       0.85117498
H       10.06289600      13.09145500      14.36552700      -0.36070117      -0.19015860      -0.07847506
O       12.57462700      11.54073900      12.70161300      -0.77962317       1.29311386      -1.69835471
H       12.00000000      12.00000000      12.00000000       1.13503682      -0.41263864       1.51307751
H       13.47462900      11.64808200      12.32858500      -0.22021161      -0.44842146       0.14544629
O       10.68480000      13.66829600      11.59631500       0.74532882      -0.05671813      -0.62193555
H        9.90263100      13.14796500      11.47170100      -0.90438555      -0.51710776      -0.43554969
H       10.67618000      13.90705000      12.51261500       0.25234994       0.52333837       0.97589473
O       11.01968500       9.53056600      13.58743700      -0.02001876       0.59735473      -0.31787276
H       11.56560700      10.33716500      13.44014600       0.11431969      -0.66580953      -0.03172387
H       10.52521700       9.70003600      14.38583700      -0.15174673      -0.08877444       0.41781016
O       13.98888700      12.84430400      15.19406100      -0.16485436      -1.89711736      -0.90536705
H       13.30575600      12.46701800      14.57353200       0.77647851       0.76132895       0.59870096
H       14.63296400      12.08983000      15.21021000      -0.69096999       1.10790489       0.17316864
O       13.26502000      12.89220200       9.75160700       1.32072900      -2.05551804       0.46447404
H       12.75248500      13.67180600       9.68345700      -1.32237805       0.71394568      -0.07077291
H       12.73259600      12.06772000       9.71704400       0.20117130       1.42386773      -0.46752949
O       11.46708900      10.87426900       8.58845000       0.77521044       0.74759556       0.55907640
H       11.16118200      10.72736700       9.48669100      -0.51295265      -0.28824501       0.00714458
H       10.98571200      10.29262900       8.02245600      -0.53671201      -0.63583777      -0.40071787
O       15.22090700      10.72784000      11.69470700       1.77978896       2.24991850       1.10937217
H       15.96673000      11.43728300      11.68495100      -2.02750536      -2.02833341      -0.33139126
H       15.20292100      10.30177300      10.84661400       0.18416865      -0.06517444      -0.71702581
27
Properties=species:S:1:pos:R:3:REF_forces:R:3 REF_energy=-18719.848466440355 charge=0 spin=1 external_field="0.0 0.0 0.0" config_type=ORCA_DFT source_file=C_DFTprod_cutcluster_0249.out orca_step=0 pbc="F F F"
O       10.35602900      14.08276100      13.92226700      -0.37433069       0.89835102       1.14706963
H       11.04640100      14.76667400      13.92205500      -0.18400862      -0.30688947      -0.13899950
H        9.81536000      14.35302200      14.70934400       0.55924321      -0.54460314      -1.03697206
O       15.15579000      11.91891100      11.59353500      -1.28754953      -0.11819830      -0.74475726
H       14.37433200      11.34556600      11.81751400       0.81943841       0.71411907      -0.23033713
H       14.90068900      12.34029200      10.73598300       0.32778200      -0.60022387       0.84056665
O       12.27590900      16.16003600       9.46438500      -0.04929762       0.48103580      -1.07770661
H       12.52005400      16.70206000       8.67502500      -0.16265185      -0.73872201       1.05820680
H       12.99148900      15.52245600       9.60537400       0.06377853      -0.01757838       0.10877253
O        8.44427600      15.16611200      11.69205800      -0.11696170       0.04004915      -0.23107241
H        8.64672200      14.75255400      10.83461800       0.00640678       0.19599243       0.56118326
H        9.05508900      14.81824100      12.35204900       0.08379935      -0.26590017      -0.19389184
O       11.15286100      12.62997000      10.37316800      -0.65636119      -0.26333318      -2.28435139
H       10.67471200      13.32936300       9.84961200       0.38517123      -0.61074277       1.02573999
H       11.18603500      11.90596600       9.68794000       0.11517499       0.82345838       1.34677135
O       12.44632000      11.33188900      12.54765800       0.12375142      -0.08719655      -1.06297573
H       12.00000000      12.00000000      12.00000000      -0.16902413      -0.23645466      -0.10896120
H       12.40498200      11.68278100      13.42105600      -0.08271944       0.29395605       1.12068446
O       13.91029300      12.44454200       8.46703200      -0.86566659      -0.59213117      -1.30870148
H       13.09192800      12.38641200       7.88904200       1.64175059       0.05437498       1.04243277
H       14.56679500      11.84741500       8.04704200      -0.67880404       0.53143642       0.29310614
O       13.79228400      14.52653100      11.49017800       1.39926746      -3.38721162      -0.92597526
H       13.26529200      15.11073700      11.97417100      -1.35281580       0.94521570       1.41660241
H       13.76461900      13.56168700      11.84837600       0.03515670       2.64442006      -0.55893118
O        9.46516700      14.86741300       9.01981600       2.10402988       0.02281412      -1.27424304
H       10.36976400      15.24810400       9.21057700      -1.01479187       0.08337780       0.24213762
H        9.59123000      14.70706500       8.05301900      -0.66976749       0.04058430       0.97460239
27
Properties=species:S:1:pos:R:3:REF_forces:R:3 REF_energy=-18720.65744886582 charge=0 spin=1 external_field="0.0 0.0 0.0" config_type=ORCA_DFT source_file=C_DFTprod_cutcluster_0250.out orca_step=0 pbc="F F F"
O        9.39495100      12.76352100      10.81493500      -0.81226580       0.96641352      -1.33643155
H        8.66002500      12.77053700      10.16116000       0.46779796      -0.54299106       0.80461682
H        9.74182000      13.65854600      10.65136000       0.24131970      -0.19549842       0.53800826
O       10.28311000       8.92587000      12.44513200       0.81874251       0.13436303      -0.35104678
H       10.71303700       8.18742800      11.98934600      -0.22337504       0.22885885       0.16398245
H       10.91574600       9.67374200      12.33302600      -0.67153306      -0.30194302       0.19901029
O       11.26574600      11.63390800      12.55393500       1.87657357      -0.70046152       0.62114952
H       10.43027200      12.04451600      12.38981400      -0.58010823       0.51889036      -0.66003679
H       12.00000000      12.00000000      12.00000000      -1.20560661      -0.12190691       0.28790341
O       15.14362600      13.18792000      12.86966000       1.90385010       0.51181448      -1.48772201
H       14.90972000      12.62438500      13.59083700      -0.75637495      -0.91059749       1.33130256
H       16.09898200      12.97981900      12.69988800      -1.36751645       0.35411231       0.12842872
O       14.80339400       9.48854500      12.74714500      -0.51634245      -0.05850062      -0.29726038
H       14.54147900       8.55795300      12.80942800       0.13081815       0.29199887       0.13936249
H       14.36083600       9.77608800      11.92287700       0.31380373      -0.19452228      -0.02650149
O       13.55332100      10.11009100      10.16846500      -0.00178748       0.11953018      -0.85593116
H       13.68278200       9.88114200       9.20785500      -0.24542580       0.82195140       1.68049223
H       13.36089300      11.08113900      10.31098000       0.26496182      -0.96540889      -0.75421959
O       13.25693100      12.71867300      10.90397800      -0.41838470      -1.74286062      -1.00432737
H       12.62375100      13.38924500      10.68882700      -0.04455115       1.15413143       0.23673048
H       13.90963800      12.91293100      11.57405200       0.73199580       0.99387368       0.84178397
O       11.33758000      15.04842400      10.11415500      -0.49501998      -0.69251152      -1.26268248
H       11.26507400      15.99588400       9.92784700       0.07889914      -0.25980387       0.08925457
H       11.11876800      14.59999600       9.25526900       0.39143948       0.76295085       1.03146527
O       13.63973400      11.47765300      14.56641600       0.62332148      -0.15220896      -0.29083498
H       13.81364100      10.77974700      13.89953100      -0.16429026       0.10444156       0.46290325
H       12.75078600      11.80000200      14.40451800      -0.34094152      -0.12411539      -0.22939981
27
Properties=species:S:1:pos:R:3:REF_forces:R:3 REF_energy=-18720.154521637905 charge=0 spin=1 external_field="0.0 0.0 0.0" config_type=ORCA_DFT source_file=C_DFTprod_cutcluster_0251.out orca_step=0 pbc="F F F"
O       13.04401900       7.37578200      12.57239500       0.10930362       2.19168358       0.33208746
H       12.27053200       8.00745900      12.61894900       0.85581654      -1.16869405       0.05117781
H       13.80013600       8.00539100      12.73643100      -1.01085808      -1.12783120      -0.34535122
O        9.71951600      11.93482600      10.94640300      -0.38776327      -0.24202829       0.24271838
H        8.76793300      11.89276300      11.12216900       0.34303887       0.10247009      -0.02640554
H        9.91132100      11.14477500      10.42280900       0.13580846      -0.01353979      -0.22007267
O       13.63693100      11.34386600      15.13740600       0.09353679       0.58386893      -1.98626311
H       13.49327000      11.48356500      14.15213600       0.34791554      -0.10476367       1.55779697
H       12.93994100      10.72352200      15.31527600      -0.45237756      -0.51391841       0.41757943
O       10.98482100       9.33467900       9.85858700      -0.72707378       0.80343334       0.03494685
H       10.80906800       9.23355400      10.80632900      -0.13186742      -0.42971997       0.10155118
H       11.74522500       8.79357100       9.70354200       0.54629441      -0.67724014      -0.12738100
O       10.66237600       9.11909200      12.65540700       2.28369082       2.04034314      -1.34868707
H        9.93037400       9.38267700      13.17391700      -1.34325505       0.15548197       0.91988062
H       11.17086900      10.02453000      12.52160400      -0.77135034      -1.91196604       0.70063852
O       12.49178500      11.23216800      12.41172500      -1.82799977       1.88621763      -0.03632059
H       12.00000000      12.00000000      12.00000000       0.68362224      -0.99239488       0.96091465
H       12.79745500      10.77537400      11.62896600       1.04928075      -0.84613525      -0.87765760
O       11.30846500      13.82342300       9.58635800      -0.47423611       0.89522116      -0.81804739
H       10.57891200      14.28830100       9.10633100       0.95308636      -0.70977072       0.74169811
H       10.87797700      13.32929000      10.28969200      -0.44974095      -0.08236108      -0.08895488
O       15.76827200      11.79957300      10.37120300       0.65139068       0.23649502      -0.03582791
H       16.53410900      11.37296500      10.80872300      -0.45043957       0.63155266      -0.64635373
H       16.06247400      12.40298000       9.65922400       0.03575921      -0.64524739       0.74066319
O       13.88091100       9.93036400      10.53612300      -0.51171169       0.75778602      -1.79524160
H       13.39998900       9.92589300       9.65560200       0.88754349       0.02824552       1.55888619
H       14.50355700      10.70921600      10.44154200      -0.43741431      -0.84718797      -0.00797495
27
Properties=species:S:1:pos:R:3:REF_forces:R:3 REF_energy=-18720.058655518813 charge=0 spin=1 external_field="0.0 0.0 0.0" config_type=ORCA_DFT source_file=C_DFTprod_cutcluster_0257.out orca_step=0 pbc="F F F"
O       13.08754300      12.83127300      15.89892100      -0.51940808      -0.62321185      -1.62175882
H       12.56359500      12.71638300      15.06121400       0.27393440       0.43901950       1.29492350
H       13.94847500      12.53161900      15.55541000       0.09124702       0.36907710       0.36250002
O       13.92963700       8.81615800      13.84386400      -0.54669335       0.55332556      -0.34887440
H       12.92987100       8.71334200      13.69017100       1.57328756      -0.41566164       0.19123455
H       14.45639400       8.03803700      13.62935700      -0.74427457      -0.16575127       0.05518981
O        9.89162500       9.92532200      11.77430600       1.64287997      -0.60171414      -2.39308391
H        9.61199100       9.58273400      10.87635000      -0.14990155       0.62568283       2.02912238
H        9.22852000      10.01199900      12.42686700      -1.81601025       0.13177578       0.29906118
O       11.20788600       8.62773000      13.88012100      -1.02718829       1.10926336      -0.19782496
H       11.02984900       9.30817900      14.56553600       0.31163480      -0.61749747      -0.30034591
H       10.63024300       8.93280200      13.12829300       1.05327023      -0.55410692       0.60358379
O       12.00000000      12.00000000      12.00000000      -0.34098610      -0.61565553      -0.31202823
H       12.93114000      11.76365000      12.09931300       0.17198897      -0.03674446       0.03065485
H       11.51851200      11.15900500      11.92169300       0.19438097       0.29658191      -0.04302983
O       10.76291800      13.80105500      13.45076300      -0.37378305      -0.51667649       1.33945033
H       10.88720600      13.25029500      12.67578300       0.49884763       0.08127520      -0.42442926
H       10.63989700      14.71276900      13.24766100      -0.06441144       0.77577871      -0.58051852
O       14.76095600      10.97817000      12.26868700       1.73617379      -0.80327866      -1.10195402
H       15.51046200      11.00521600      11.57503800      -1.85167141      -0.38571831       1.83917569
H       14.77679600      10.10871300      12.78685200      -0.24890409       0.95481086      -0.77212645
O        9.49333000      12.76424500      15.79612700      -1.14567939      -1.08675731       1.22413784
H        9.90941200      13.23074300      15.08809800       0.35482214       0.51301328      -1.23248657
H        8.60403800      12.47917900      15.52021600       0.74131168       0.45183352      -0.03730285
O       15.43999900      12.63499900      14.32741200      -0.50507412      -2.09531204       0.08657743
H       15.23352900      12.01279600      13.57149400       0.34332648       1.11632649       0.67910116
H       15.75962700      13.45135500      14.00040600       0.34688015       1.10032204      -0.66894885
27
Properties=species:S:1:pos:R:3:REF_forces:R:3 REF_energy=-18719.55057958156 charge=0 spin=1 external_field="0.0 0.0 0.0" config_type=ORCA_DFT source_file=C_DFTprod_cutcluster_0260.out orca_step=0 pbc="F F F"
O       12.00000000      12.00000000      12.00000000       3.70638983       0.58095330       1.57922629
H       11.11041700      12.02458100      12.20104500      -3.23401391       0.01908319       0.08828984
H       12.39037800      12.26539000      12.90387200      -0.30744601      -0.52178018      -1.90388866
O       12.08761900      15.47748300      14.57084000      -1.06208526      -0.46052045       0.92180226
H       12.30703800      15.50662700      15.51959300       0.17628899       0.34529142      -0.64137839
H       12.82706600      15.76238600      14.05378400       0.80054789       0.56410887      -0.24681029
O       11.06335400      15.84903400      11.11107600      -0.54535077       1.71074214      -1.54502547
H       10.28388100      15.82027500      11.64574800      -0.77129964      -0.62564396       1.35691646
H       10.67103100      16.51666400      10.47584500       1.26387496      -1.01914290       0.43900407
O       14.42358600      14.01437900      11.25062400       0.28064925       0.56675243      -0.13628246
H       13.57717500      13.55498100      11.18674300      -0.18376822      -0.02867356       0.42627341
H       14.46243400      14.54176000      12.06860400      -0.19802139      -0.69532554      -0.49692501
O       10.79903700      13.43794400       9.49161100      -0.44730066      -0.55508795      -0.99428711
H       11.27038500      14.12590600       9.95744400       0.36940585       0.48735830       0.12747777
H       11.17652800      13.44375400       8.58884300      -0.22007215       0.09794346       0.87734048
O        8.06805900      14.98656000      11.15706600      -0.67928479      -0.39381240      -0.30158868
H        8.74966500      14.53317700      10.65210000       0.37336540      -0.18753931      -0.21921325
H        7.25421200      14.54707300      10.83864300       0.53108742       0.46914512       0.37755295
O       15.75863200      13.89303300      14.20446300      -0.64258733      -1.40759414      -0.36432082
H       14.86676700      13.42780500      14.27897900       1.32126163       1.57021529       0.18636216
H       15.80483300      14.82695600      14.40732600      -0.73805018      -0.06636326       0.27507170
O       12.98901000      15.22084300       8.80338700       1.00308687      -0.02816808       0.55275272
H       12.88111100      16.17542700       8.70591200       0.21847138      -0.24888656       0.11914277
H       13.76654300      15.07768100       9.41122100      -1.07356914       0.23862606      -0.64731970
O       12.97614800      12.99647600      14.45976900       0.77325800       2.79095146      -1.63620497
H       12.44736700      13.86623400      14.45683900       0.66129246      -1.28511053       0.04758295
H       12.51817900      12.38599600      14.96367400      -1.37613041      -1.91752220       1.75844896
27
Properties=species:S:1:pos:R:3:REF_forces:R:3 REF_energy=-18719.185374736975 charge=0 spin=1 external_field="0.0 0.0 0.0" config_type=ORCA_DFT source_file=C_DFTprod_cutcluster_0262.out orca_step=0 pbc="F F F"
O        9.26310200      13.44316900      12.57611700      -2.53756424       0.15581509      -1.32547484
H        9.59823300      12.89048100      11.84257900       0.07451217       0.37836295       0.40754179
H        8.33641700      13.68396900      12.21224300       2.24241612      -0.42851058       1.13845346
O       12.32742700      13.00469300      15.93416600      -0.49197996       0.35365187      -0.38633265
H       12.76464000      12.54693800      15.19322200       0.04156790       0.03121453       0.75708894
H       12.89257100      12.90914400      16.69872400       0.26734574      -0.21486402      -0.02040268
O       11.96849200      11.57715100      12.87389400      -0.23052991       0.21282827      -0.08654879
H       12.00000000      12.00000000      12.00000000      -0.02416863      -0.42765003       0.26440584
H       11.59854700      10.68619700      12.83837200       0.00395600       0.26345726      -0.48177463
O       13.41202700      11.17494200       9.65701300       0.43131745       0.82723440       0.00718726
H       13.28224400      11.62543600       8.80695400       0.36567805      -0.19292855       0.46460923
H       14.15931900      11.60907100      10.13105200      -0.81271142      -0.25843312      -0.61431290
O       11.17190300      15.42367200      12.91837800      -0.49424083      -1.45777369       0.17049007
H       10.43579300      14.71367600      12.85711300       1.16641323       1.74313804      -0.25724223
H       11.06958400      16.14806800      12.30145300      -0.64217554      -0.09403703      -0.08325433
O       13.34509200       8.99397300      11.22691200      -1.30672394      -1.92585998       1.25375582
H       13.25528800       9.68882400      10.60402100      -0.10115374       1.05325737      -1.12707889
H       12.45267800       8.56504500      11.24561400       1.31565071       0.43955244       0.01091922
O       13.87040000      11.09383200      14.60879400      -0.26308172      -0.26629689       0.04087879
H       14.78435800      11.39755500      14.51832700      -0.64557160      -0.05144068      -0.63142992
H       13.27513200      11.20598500      13.81118300       1.47512612       0.23213911       0.55955123
O       13.39539400      14.38275600      10.90155500      -0.33026121       0.05548662       0.10814194
H       12.54635600      14.84703800      10.95476000       0.13920514      -0.12637246       0.59972678
H       13.47110800      14.18587000       9.97327400       0.22118631      -0.07108432      -0.56508105
O       10.25710700      12.64465600      10.12980400       0.78323815      -1.00262649      -1.51382812
H       10.33483800      13.20634700       9.32199900      -0.12809175      -0.67467860       0.98591349
H       10.61041700      11.74998800       9.86236500      -0.51935866       1.44641842       0.32409725
27
Properties=species:S:1:pos:R:3:REF_forces:R:3 REF_energy=-18719.91620532723 charge=0 spin=1 external_field="0.0 0.0 0.0" config_type=ORCA_DFT source_file=C_DFTprod_cutcluster_0263.out orca_step=0 pbc="F F F"
O       10.90338800      12.44362600       9.32900000       0.91556656      -0.17904464       0.10267418
H       10.71838500      13.19653900       8.76111300      -0.02603294       0.01573603       0.01630100
H       11.83681600      12.17911000       9.12496200      -0.72988425       0.07752051      -0.21156535
O       14.70692100      10.09378700      11.16881400       0.25841296       1.51730322       0.60079039
H       14.35141100       9.50418200      11.83708200      -0.02123053       0.03616447       0.05447654
H       14.85591200      10.97792600      11.62988900      -0.07785517      -1.46948893      -0.76689997
O       12.00000000      12.00000000      12.00000000       0.84404140      -0.44761506       0.74690892
H       11.78593900      12.34394900      11.13704700      -0.55145873       0.19207767      -0.66707744
H       11.77694100      11.05400300      11.98894100      -0.02368686       0.09667703      -0.30952840
O       13.46320900      11.37989500       8.79134600       0.60690098       1.04980855      -1.09182670
H       14.15034000      11.87787400       8.30391900      -0.79361353      -0.24280014      -0.17228722
H       13.98302100      11.15530200       9.55197600       0.19688265      -0.94842387       1.36330544
O       13.94792500      12.36307500      14.12811300       1.41711576      -0.06642276      -1.48825489
H       13.69045600      12.13409000      13.19281400      -0.08757142       0.45916363       1.27380467
H       14.91167200      12.59145500      14.03046500      -1.50004777      -0.38169207       0.34622046
O       11.37940000       9.21484500      11.71653700       0.24735979       0.14576552       0.41577446
H       11.95807600       8.62284400      12.24696000      -0.69880836       0.21325590      -1.33620925
H       11.27404100       9.02143600      10.76722300       0.72103966      -0.49684994       0.72030196
O        8.75685400       9.78767100      12.51020200       0.03049390      -0.21843030      -0.87106930
H        9.05572100       9.80769500      13.40839000      -0.00784814       0.23953216       0.95073905
H        9.57842800       9.55476700      12.04949900      -0.37318917       0.08587593       0.11427500
O       15.46695500      12.77872600      11.41903200      -0.45355564       1.33422606       0.39851305
H       16.11448900      13.21846700      12.02570000      -0.99115011      -0.35839782      -0.90183625
H       14.70023600      13.40738200      11.28222400       1.39523973      -0.87682502       0.46198701
O       10.07363500      12.93317900      13.71742600       0.44453405      -0.29868580      -1.28857139
H       10.91060000      12.48813000      13.43559500      -0.70355184       0.59916792       0.52676673
H        9.71629700      13.10112500      12.81652400      -0.03810298      -0.07759811       1.01228720
27
Properties=species:S:1:pos:R:3:REF_forces:R:3 REF_energy=-18719.732283527952 charge=0 spin=1 external_field="0.0 0.0 0.0" config_type=ORCA_DFT source_file=C_DFTprod_cutcluster_0264.out orca_step=0 pbc="F F F"
O       10.46732200      10.93944700      14.18740400      -0.12173583       0.05011492      -0.82029032
H       10.99117600      11.17162700      13.39550600       0.45051418       0.60389438       0.37312346
H        9.73391100      10.52840900      13.70141600      -0.03354986      -0.33245014       0.73023449
O       15.78399700       9.51169300      10.50154900       0.20825665       1.03921894       1.21264758
H       15.90289500       9.77642000      11.47355000      -0.28595009      -0.05221633      -2.49571079
H       15.61264300      10.30856700       9.93223200       0.20204995      -1.01450103       1.36580543
O       13.00401900       8.49272600      11.07034200      -3.33469683       1.43465567       0.58268278
H       13.87894400       8.28069100      11.22299600       2.99756893      -0.76767577       0.16718270
H       12.81326200       9.14002900      11.79224800       0.06261398      -0.64945454      -0.74316606
O       12.00000000      12.00000000      12.00000000      -0.68212107      -0.33913434      -1.01012290
H       12.59239900      12.74266700      11.83195300      -0.12244155      -0.15968460       0.17442823
H       11.49735000      11.79780900      11.15567100       0.85196040       0.25495195       1.02201394
O       10.81136900      10.96420400       9.75572200      -1.36952643       1.08641756      -2.02163116
H       10.33053800      10.12977900       9.81645400       0.18101272      -0.08326652       0.21176034
H       10.33350500      11.45188000       9.00365800       1.12064291      -1.01413197       1.71610469
O       12.95151300       9.27878500      14.18693700      -0.07621486       0.09470299       0.01596434
H       13.69236800       9.86388800      14.00522000      -0.05673433       0.11599960       0.07611016
H       12.24351400       9.85468600      14.52649600       0.00538677      -0.19948461      -0.21531998
O        9.95973600       8.57510900      12.63016700      -1.56085406      -0.36388337      -0.16452907
H        9.24175500       7.90990300      12.56049600       0.64168595       0.66185481       0.07728300
H       10.75169900       8.06971300      12.49281800       0.90024232      -0.31467770      -0.08801324
O       10.34386700      13.01400000      16.40684700      -1.47988935      -0.28412641      -0.68676654
H       11.20105000      13.17924600      16.75565500       1.03631432      -0.21128376       0.14632663
H       10.34465100      12.30709200      15.72672500       0.44891449       0.41118016       0.41791413
O       13.89011700      13.36010100      13.83079300      -3.20336014       0.71353471      -0.00212229
H       13.26668800      13.37398100      14.59837800       0.56112855       0.03727123      -1.12039027
H       14.68545500      13.11491600      14.20996000       2.65878225      -0.71782578       1.07848082
27
Properties=species:S:1:pos:R:3:REF_forces:R:3 REF_energy=-18719.524075360867 charge=0 spin=1 external_field="0.0 0.0 0.0" config_type=ORCA_DFT source_file=C_DFTprod_cutcluster_0265.out orca_step=0 pbc="F F F"
O       15.55746500      13.98415400      10.41970500      -0.36367671      -0.32008036      -1.88118592
H       14.89810500      14.61852400      10.12389200      -0.17678860      -0.10197253      -0.26316585
H       15.69928100      14.24480200      11.29689400       0.49128967       0.30210089       2.21238970
O       11.98086100      11.08413300      11.73849000      -0.79718983      -1.24963815      -0.25662301
H       12.00000000      12.00000000      12.00000000       0.35623732       0.89230656       0.01203461
H       12.79837900      10.63152600      11.94321700       0.64944806       0.38180458      -0.25611758
O        9.23516400      14.82085200      13.70068400      -2.35261798       1.26394695       2.36804353
H        9.26072900      14.73920200      14.68911000      -0.01623811       0.03496037      -1.49434676
H       10.01704600      14.45217500      13.39663800       2.40681299      -1.41451262      -0.84648497
O       14.96643600      10.88802400      10.84304300      -0.04105558       1.33622339      -0.07295434
H       14.24006900      11.11975700      10.22094400       0.83915116      -0.03052357       0.64964464
H       15.42015300      11.75750400      11.04738800      -0.94133966      -1.28363883      -0.52250862
O       12.85401400      16.24031300      12.69459300       1.81098606      -0.26001085       1.61427634
H       12.32835600      16.78591000      13.30061700       0.15586759      -0.07343117      -0.18208724
H       13.69963000      16.03597500      13.22123700      -1.90393469       0.57238006      -1.20939395
O       15.08425600      12.95365200      13.54248600      -0.47433329      -0.70232146      -0.10722699
H       14.72724800      13.72574900      13.97211000      -0.09308680       0.37281914       0.32462612
H       14.37664400      12.29016600      13.68773400       0.47192330       0.33097592      -0.17932700
O       11.60664300      15.04925300       8.67174900       0.94839374      -2.72109962       0.04527914
H       11.69708100      15.80136800       8.12213600       0.17878697       1.12392070      -0.95776387
H       12.13134100      14.31300200       8.22033300      -1.14832773       1.61513771       0.93886734
O       11.67660500      13.94040500      11.76963500      -1.65998578       0.45189461      -0.22185614
H       11.99054600      14.63025700      12.35924400       0.74403062       0.29779440       0.13441821
H       10.88545100      14.40847100      11.39846100       0.95055861      -0.94050539      -0.12330333
O       12.21528600      11.18093800      14.49951100       0.46474524       0.22952558       0.58769962
H       12.65340400      10.51687200      15.04283000      -0.12198476       0.00476374      -0.07305425
H       12.07904200      10.78860100      13.63137600      -0.37767184      -0.11282027      -0.23987952
27
Properties=species:S:1:pos:R:3:REF_forces:R:3 REF_energy=-18719.515461911597 charge=0 spin=1 external_field="0.0 0.0 0.0" config_type=ORCA_DFT source_file=C_DFTprod_cutcluster_0266.out orca_step=0 pbc="F F F"
O       12.18123200      15.30650200      14.14139700       0.33434865      -0.44879180       0.29906874
H       11.52098800      15.73645600      13.59717500       0.08033428      -0.10391412      -0.43599480
H       12.63247400      14.60609300      13.63981400      -0.40607852       0.53794887       0.11495079
O       15.35698900      13.20025000      11.92581900      -0.54092940       0.73825818      -0.02953303
H       14.63903600      13.78922300      11.64503300       0.52082707      -0.01223454       0.14864556
H       15.14328100      12.38408000      11.46028700       0.04969115      -0.48456068      -0.01828893
O       14.77488700      10.85338700      10.56774000       0.08208916       0.69354104      -0.69951135
H       14.04537400      10.28267500      10.78874500      -0.22100515      -0.53478986       0.64844070
H       15.56016700      10.31579100      10.52790700       0.34762670      -0.32146521       0.08312012
O       12.00000000      12.00000000      12.00000000       0.10775345       1.92188644       0.18666277
H       12.22937500      12.84813400      11.56563600      -0.21077741      -0.92948826       0.13614429
H       12.09561900      11.27729200      11.37849300       0.11131366      -0.44936361      -0.84554904
O        9.92946000      12.63877700       9.31679100       0.20011592      -0.59612975       1.34561250
H       10.06145900      11.86175700       9.91343800      -0.25108362       0.74490654      -0.84736187
H        9.79565900      13.35047400       9.97694000       0.11538299      -0.24004721      -0.43672047
O       12.16612300       9.77929700      10.48875200       0.37775124      -0.20846681      -1.06669067
H       12.57304400       9.89921100       9.58866900      -0.95607275      -0.60560740       1.07891457
H       11.70452700       8.91970300      10.57314200       0.45808011       0.75628404      -0.37585104
O        9.75175900      14.65572100      11.49529600      -0.74690537      -0.72190797       2.44138085
H        9.74012600      14.26831400      12.43885900       0.24514859       0.68941468      -2.13682014
H        8.82498000      14.95236400      11.42832200       0.47902895       0.01059295      -0.23297971
O        9.84314800      10.74669900      12.83029200       0.74838303       2.11200488       2.83879779
H       10.53963700      11.39301300      12.50418900      -0.98594913      -0.95430250       0.19704077
H        9.81590400      11.08967100      13.81556300      -0.21630975      -1.35445591      -2.77825736
O       13.68340600      10.45901500      13.47886900      -1.00415742      -0.42428409      -0.11693676
H       13.12744900       9.69553300      13.71645500       0.46971168       0.30001706       0.05139301
H       13.02038700      11.05879900      13.06920200       0.81168195      -0.11504489       0.45032258
27
Properties=species:S:1:pos:R:3:REF_forces:R:3 REF_energy=-18719.394707619893 charge=0 spin=1 external_field="0.0 0.0 0.0" config_type=ORCA_DFT source_file=C_DFTprod_cutcluster_0267.out orca_step=0 pbc="F F F"
O       12.93669900      10.19639200       9.89032500      -0.61875407       1.33497852      -2.29982264
H       12.83827300       9.55389200      10.54712300      -0.32354184      -1.57608183       1.40723573
H       12.17760500      10.05260400       9.27262000       0.92958113       0.23026231       0.83692829
O       11.80155800      12.88034700      11.58021200       0.64397680       0.20398126       2.61528591
H       11.87509300      13.44841900      12.41270600      -0.38530858      -0.64668695      -1.74105046
H       12.00000000      12.00000000      12.00000000       0.03584200       0.72048338      -0.75433514
O       11.95624700      10.52468200      13.03314700       0.60358919      -2.30605505       0.18406334
H       11.32936700      10.13512200      13.66538100      -0.08396894       0.54352559      -0.23499448
H       12.41213000       9.68555700      12.73656600      -0.44380268       1.60855533       0.29186872
O       10.70458200      15.54340700      13.00192100       0.34401116       1.50204866      -1.37136328
H       11.38503400      15.29225700      13.61802200       0.47825063      -0.39130167       0.81927447
H       11.17750000      16.26259100      12.49779200      -1.10843186      -1.08609170       0.49927865
O       15.45703400      11.99014500      12.14907400       0.04926563      -2.57261722      -0.95014924
H       15.74860000      12.76010800      11.72024100       0.49501468       2.25849149      -0.49100659
H       15.64754000      11.37831300      11.38243600      -0.62219750       0.34769175       1.41941473
O       12.68717800      14.42062800      14.46710700      -1.63204066      -0.18262146       0.52240321
H       13.57023500      14.52131400      14.15934500       1.22500019      -0.36458487       0.06913229
H       12.58206200      13.76902900      15.17909700       0.68439161       0.33522889      -0.47892657
O       13.19231500      14.08852300       9.41101800       0.52235965       0.40818960      -0.13200312
H       13.06887600      13.85267100      10.32475000       0.41231381      -0.27361918       1.03945343
H       12.33093600      13.80470300       9.14421400      -0.89863960      -0.19149974      -0.99475881
O        9.47713600      11.34797200      11.00210200      -0.34563564      -0.53962327      -0.12208175
H       10.34444000      11.72620000      11.11598700       0.59665426       0.30703761      -0.31316748
H        9.01816600      11.81148700      11.70616100      -0.58310218       0.16646814       0.20479640
O        8.58227900      13.05776000      13.23056600       1.44379538       0.00465344       1.11549324
H        9.25344000      13.75448100      13.11087000      -0.50999136       0.42172235      -0.75453882
H        9.03738300      12.64827700      13.99645600      -0.90863122      -0.26253547      -0.38643010
27
Properties=species:S:1:pos:R:3:REF_forces:R:3 REF_energy=-18720.038989288165 charge=0 spin=1 external_field="0.0 0.0 0.0" config_type=ORCA_DFT source_file=C_DFTprod_cutcluster_0268.out orca_step=0 pbc="F F F"
O       11.63130600       8.31924100      12.75342600      -0.47941693       1.29918022       0.71828472
H       11.77656900       7.88329900      13.58538200       0.42305865      -1.27835192       0.37198862
H       11.36995100       9.16004500      13.18419900       0.07903798       0.05336834      -1.10617377
O       10.50202300      14.06217100       9.97625300       1.11863035       0.76129872       1.10115770
H       11.16232700      14.31749700       9.32018300       0.49444308       0.12243944      -0.34511961
H        9.80544600      13.68970400       9.48413900      -1.57193968      -0.73012722      -0.88666957
O        8.66209300      10.76786700      11.56917900      -0.47148646      -1.43294594       0.41963734
H        9.61269300      10.89202400      11.57161300       0.61832480       0.47457642      -0.05183036
H        8.57649000       9.83161200      11.86465000      -0.12226368       1.03316693      -0.38790848
O       11.30183200      11.92009200      11.36555100      -1.63369805       0.97212312      -1.90930073
H       12.00000000      12.00000000      12.00000000       0.78664393       0.43156247       0.72603084
H       11.04112800      12.81941800      10.89205500       0.81640055      -1.72853916       1.44970778
O       15.66917300      12.45895900      11.60307400       1.40816256      -1.32462998      -2.59831278
H       16.03564000      11.79257900      10.91477200      -0.97011519       1.29065033       1.90919491
H       15.94103600      13.27578000      11.15088400      -0.22907523      -0.03924239       0.51703875
O       13.61090900      11.93008100      13.51502300      -0.70529751       1.42938650      -0.55876627
H       14.28175200      11.60659900      12.91858700       0.48223594      -0.37779741      -0.13398832
H       13.52859600      12.85844300      13.14986300       0.04032848      -1.07637231       0.77854239
O       13.24512800      14.41027000      12.17776800       0.40907992       0.47489482      -0.57118465
H       13.82167700      14.77774900      11.48610400      -0.16842018      -0.31184280       0.38110935
H       12.39487400      14.80104600      11.96762800      -0.40446253       0.01038618       0.11429027
O       12.80270000      14.25456200       8.21425200      -0.08105717      -1.17924576       0.24852645
H       12.58132800      14.09860600       7.28809500       0.02511567       0.32283792      -0.01881600
H       12.84081600      13.30383100       8.54975700      -0.18925311       0.94363113      -0.10426770
O       12.51298400      11.66913600       8.98606500       1.81195007       0.29017987      -2.34201589
H       12.03212600      11.44242700       9.77994500       0.18722389      -0.52099517       1.35764398
H       13.40804900      11.26894700       8.84177500      -1.67415009       0.09040760       0.92120108
27
Properties=species:S:1:pos:R:3:REF_forces:R:3 REF_energy=-18719.43437281326 charge=0 spin=1 external_field="0.0 0.0 0.0" config_type=ORCA_DFT source_file=C_DFTprod_cutcluster_0269.out orca_step=0 pbc="F F F"
O       11.77343100      11.12815100      12.42060800       0.43526548       1.13545935      -0.41100342
H       12.00000000      12.00000000      12.00000000      -0.43281496      -0.85282660       0.51277664
H       11.67578800      11.31334500      13.36375700       0.01908371      -0.00488510      -0.07954814
O       15.62932700      12.38299200      11.64313100      -0.03116172      -1.72236650       0.27039996
H       16.12109900      11.52870400      11.52491700      -0.41530482       1.23034315      -0.00247052
H       15.01236200      12.12303400      12.35404500       0.29851410       0.35345014      -0.26507752
O       11.96660100      13.79595900      11.83538300       0.13793034       2.48817411       0.27551100
H       12.19151700      14.26595300      12.69188500      -0.41355462      -0.78147817      -1.44637980
H       11.83437200      14.54946600      11.18180200       0.24582263      -1.39318470       1.18770171
O        8.78353700      13.04197100      13.04404400      -1.22089372       0.02274064       0.41331978
H        9.56909900      13.10742400      12.53166500       1.06541633       0.08437981      -0.71395735
H        8.11721600      12.73310000      12.40917200       0.27566655      -0.05830393       0.34783516
O       12.91981700      11.68451100       9.51704900       1.26043683       1.02105071       0.31686802
H       13.23085000      12.42566400       8.93409900      -0.26941466      -1.14063262       0.88094331
H       13.60211500      11.62212900      10.23949600      -0.75242316       0.21471582      -1.13496904
O       10.20766700      13.05451600       9.19679600      -1.31534141       0.22030381      -0.70819098
H       10.62414700      13.36220900       8.38495800       0.23065594      -0.12359906       0.36243173
H       10.83090400      12.99138500       9.90202600       1.01545511      -0.18853412       0.32955138
O       10.70091400       9.73016600       9.65286800      -1.79156030      -0.79659729       0.31231455
H       11.35399400      10.38452900       9.48375900       0.73402173       1.11424708      -0.33201465
H        9.81857200      10.16123200       9.62887400       1.04972946      -0.28288225      -0.07892027
O        9.15420000      10.03946100      12.29640800       0.85365362       0.58470089       1.37829996
H        9.96499500      10.41369100      11.91404400      -0.15035164      -0.43880162      -0.59165259
H        9.42814100      10.19234800      13.23528200      -1.00039914      -0.40298116      -0.86285030
O       13.57589400       9.20694600      12.73856000      -0.74726301       0.93159446       0.79621327
H       13.06519900       9.98221700      12.36865500       0.74903414      -1.31909033       0.00839455
H       14.26480300       8.85314100      12.19335500       0.16979690       0.10500355      -0.76552643
27
Properties=species:S:1:pos:R:3:REF_forces:R:3 REF_energy=-18720.076247287707 charge=0 spin=1 external_field="0.0 0.0 0.0" config_type=ORCA_DFT source_file=C_DFTprod_cutcluster_0272.out orca_step=0 pbc="F F F"
O       10.22604500      12.82213500      14.14350000       0.78255264      -0.02251613       0.12941906
H       10.64941200      12.95248600      15.04407700      -0.43894113      -0.45811596      -1.45573116
H       10.93791800      12.79257100      13.45605300      -0.70711986       0.19052364       0.94105910
O       14.75290900      12.33847600      10.06958400       0.63489088       1.65149157      -1.41218027
H       15.12471800      11.48073600       9.88299600       0.19193230      -0.56510008       0.01863361
H       15.18545300      12.93348800       9.37638900      -0.97523076      -1.15384639       1.50875739
O       11.68780300      12.50254800      16.36265200       0.07462031       0.81829262       0.10117996
H       11.85863500      11.68470700      16.80484300      -0.10871180      -1.00790183       0.50827834
H       12.51301900      12.65489300      15.90196600       0.44564559       0.17752713      -0.31316512
O       13.81031500      11.73696600      14.19882500       0.81245699      -0.31225017      -0.87208900
H       13.14312400      11.57311500      13.47674800       0.86554672       0.22805245       0.37316161
H       14.71806100      11.48753100      13.86391900      -1.69755052       0.50437185       0.13761671
O       13.88433700       8.39358500      11.80866400      -1.29990676      -0.17816795       2.56999685
H       13.37306600       8.34327500      12.69526600       1.54802071       0.03750993      -1.90708038
H       13.15669400       8.63139800      11.22598300      -0.03715692       0.17648928      -0.42598663
O       10.05427000       9.73702400      14.18360300      -0.18578299       2.05714576      -0.00790573
H        9.20521000       9.56264500      14.60578500       0.08835149      -0.19454732      -0.04180881
H       10.06393600      10.75404800      14.18776100       0.12993050      -1.58453660      -0.02356930
O       11.90875200       9.50284100      10.16353100      -2.13120752      -1.25319259      -0.68518223
H       12.16411400       9.48468100       9.22867200       0.17473496       0.20078070       0.22461786
H       11.05552300       8.95622900      10.13164200       1.67290439       1.12787085       0.34844986
O       12.00000000      12.00000000      12.00000000       0.30680879      -0.52921298      -0.91947680
H       11.49414500      11.23567600      11.65224800       0.38841201       0.46900247       0.25816212
H       12.63896500      12.19677000      11.27671100      -0.43246041      -0.06184949       0.63793214
O       13.93239400       9.62036700      15.86438500      -1.31334926       1.55464197      -1.14961492
H       14.86536500       9.62880400      15.95292900       1.47242600      -0.36295973       0.44232655
H       13.81333800      10.44140200      15.26880200      -0.26181633      -1.50950306       1.01419918
27
Properties=species:S:1:pos:R:3:REF_forces:R:3 REF_energy=-18719.81636238791 charge=0 spin=1 external_field="0.0 0.0 0.0" config_type=ORCA_DFT source_file=C_DFTprod_cutcluster_0274.out orca_step=0 pbc="F F F"
O       10.14065800      15.55862600      12.17187800      -0.07738718      -0.91747921      -0.11191961
H       10.18678700      15.16697200      11.27909900       0.18300857       0.19480499       0.54023664
H       10.52350200      14.88282500      12.78830200      -0.11900316       1.00569716      -0.81321911
O       10.76011100      13.74412900       9.60832300       0.14045809      -0.86767616       0.72141777
H        9.89524400      13.54327100       9.23884500      -0.05575597      -0.06255099       0.01732538
H       10.96669300      12.99164800      10.22453800      -0.03044145       0.89481735      -0.64549036
O        8.16458700      14.09066900      14.35232200      -0.41444700       1.59585228      -0.32182424
H        7.86172900      14.30299600      13.41779200       0.75698209       0.00684037       1.82276166
H        8.16346600      14.95283200      14.87382800      -0.17541815      -1.53641423      -1.40682851
O       11.14322600      14.17988900      14.25665600       1.01988373      -0.79031727       1.15040487
H       11.77723200      14.05787800      15.01315900      -0.67056006       0.50737537      -1.16397623
H       10.25841800      13.99765300      14.58554600      -0.40642763      -0.14097524       0.13182057
O       13.71827200      15.00918200      15.21983900       0.57658556      -0.36465316       0.05678349
H       14.21833900      15.11364500      16.04312100      -0.14296954      -0.01921812      -0.31723281
H       14.36907300      14.68063400      14.57004300      -0.45646104       0.30713161       0.25850346
O       14.64892100      14.50595800      11.51768900      -0.75865079      -2.42454794      -1.11003335
H       15.34231400      14.07091000      10.96151500      -0.63932989       0.80465662       0.70166094
H       13.88280200      13.86071000      11.33520800       1.30307642       1.57176721       0.50781605
O       12.76525800      14.73344100       7.57031900      -0.10525537      -0.97192576      -0.95418315
H       12.70440700      13.99793100       6.92752200       0.43621936       0.70333633       0.19734632
H       12.02657900      14.48332600       8.12837200      -0.27426340       0.22296819       0.84430108
O       12.00000000      12.00000000      12.00000000      -0.24669366       0.11819239       0.14413338
H       11.67491700      12.30820000      12.86096800       0.16302652       0.10746286      -0.16636314
H       12.86939400      11.61203300      12.15029100      -0.05955133       0.07016412      -0.11507873
O       14.08776500      11.38975800      10.09472200       0.55703803       2.02886290       1.30865494
H       13.81529100      10.61976400       9.68603200      -1.53817914      -2.63278310      -1.12154845
H       14.94217900      11.47444600       9.69727200       1.03451629       0.58861154      -0.15546886
27
Properties=species:S:1:pos:R:3:REF_forces:R:3 REF_energy=-18719.460143999317 charge=0 spin=1 external_field="0.0 0.0 0.0" config_type=ORCA_DFT source_file=C_DFTprod_cutcluster_0275.out orca_step=0 pbc="F F F"
O       11.09682400      14.88893700      13.80272200      -0.28137831       0.43034634      -0.68307989
H       10.22666100      15.10342600      13.39612900       1.08018331       0.02697987       0.41020442
H       11.76206200      15.52970900      13.47109200      -0.68727932      -0.45880758       0.16927332
O       11.62019500       8.89311200      11.00710200       0.96185177      -0.65368148      -0.39315976
H       10.68229500       8.93888400      11.08307300      -1.28764255       0.54546307       0.32323505
H       11.72582100       8.07416100      10.50009900       0.37221334       0.25366326       0.14260193
O       11.47848900      12.26318600      12.72240300      -1.73506035      -1.28650957       1.00519399
H       12.00000000      12.00000000      12.00000000       1.73581286      -0.18537557      -1.41294764
H       11.60453300      13.16277900      12.95725500       0.40878594       1.54887472       0.52682952
O        9.04856800      12.24862200      11.38254200      -1.62435862       1.67589139       0.23641866
H        8.69782500      13.05573000      11.83857100      -0.29393990      -1.16159652      -0.77141611
H        9.92961800      12.34437000      11.70774300       1.60363516      -0.64090495       0.48731922
O       13.72892000      11.01683500      11.44983900      -0.92009726      -1.39912909      -1.67941643
H       14.17204400      11.12595400      10.55762600      -0.90069365      -0.41231818       1.59022578
H       13.06385900      10.23691600      11.34668200       1.65351508       1.66730818      -0.04514611
O       15.61391300      13.22697600      13.42793300      -2.17086078       2.06310234      -1.01803074
H       14.83886200      13.91427300      13.19199400       2.66241264      -1.89403861       1.05807557
H       16.28092400      13.72039100      13.92646600      -0.37573534      -0.06594674      -0.06298236
O       14.53432100      11.52033700      15.30520100      -0.58582091      -0.94192901      -1.18032362
H       14.13890500      10.65886400      15.01242900       0.51467972       1.25935717       0.47246266
H       14.68091600      12.01574400      14.45923500       0.11225504      -0.48439387       0.91791203
O       13.87863400      15.35145600      12.61058500       0.48996586       0.12745309      -1.27942253
H       13.91554500      14.95258100      11.71989900      -0.57017456      -0.24022559       0.39952874
H       14.53177700      16.04782000      12.43914400      -0.10899401       0.20692924       0.68482299
O       10.43721800       9.94378900      14.13079200       1.36902039      -0.68710058      -1.43701795
H       11.07504100      10.54406000      13.63253500      -1.22922148      -0.84464154       0.93576829
H       10.61718600       9.02788800      13.77862600      -0.19307413       1.55123037       0.60307091
27
Properties=species:S:1:pos:R:3:REF_forces:R:3 REF_energy=-18719.96969551191 charge=0 spin=1 external_field="0.0 0.0 0.0" config_type=ORCA_DFT source_file=C_DFTprod_cutcluster_0277.out orca_step=0 pbc="F F F"
O       12.28416200      11.60845900       7.09102400      -0.29976041      -0.15152247       0.75458484
H       13.11895900      11.29049300       7.45688100      -0.00661329       0.03557934      -0.22877421
H       11.66273400      11.45202800       7.84948600       0.46058627       0.14959790      -0.65868074
O       13.09111100      14.18162200       8.35157800      -0.11033849      -0.61615232      -0.23751385
H       13.56307900      13.71750900       9.06597400      -0.29680323       0.05069059      -0.37623824
H       12.74115400      13.47816300       7.75263900       0.39034054       0.55573299       0.64780440
O       15.68265400       9.69868100      13.68025200      -2.84423413      -0.42403233      -0.12896922
H       15.33548800       9.61003500      12.72655100       0.63580779       0.26729298       2.20140533
H       14.86862200       9.60722600      14.31626900       2.29605798       0.20673820      -2.13623398
O       13.31795700       8.18820200       9.90276600      -1.15463598      -0.16546845      -2.14546393
H       12.85354400       8.11885000       8.99630000       1.17344365       0.24645789       2.11976339
H       12.58176900       8.22203200      10.52348100      -0.00674786       0.01221043       0.06540712
O       11.17074300       9.97070100      15.02562800       1.03080547      -0.44014153       2.64817351
H       12.05492000      10.32452200      14.93616200       0.16861270       0.17947150      -0.04190811
H       10.79172400      10.05210100      14.19791000      -1.18848990       0.33764845      -2.66209481
O       14.30221600      12.52709600      10.65923700      -0.70035632      -2.54306552      -1.32919220
H       14.56951400      11.55760300      10.41283000      -0.00333148       2.20638088       0.64993276
H       15.08832900      12.93121500      10.98277500       0.96813673       0.39679406       0.51883287
O       12.00000000      12.00000000      12.00000000      -0.06693919      -2.83368644      -0.31695343
H       11.57190700      12.79904900      12.19738100      -0.35919841       1.86265861       0.09412804
H       12.79911600      12.09476500      11.45881000       0.19144271       1.02618726       0.26020178
O       15.37876400      10.01673100      10.55571800       0.67717365       0.10776569      -0.18119285
H       14.66338800       9.42315600      10.33860600      -1.05088306      -0.75340970      -0.14293278
H       16.07399600       9.68264800       9.97134400       0.16973607       0.32715712       0.24485929
O       10.91730500      10.92831100       9.35953000       0.27922074       0.16985778       0.84076201
H       10.11095800      10.40060200       9.31447400       0.12201053       0.30825298       0.42627325
H       11.07817400      11.29117900      10.27492600      -0.47504307      -0.51899578      -0.88598036
27
Properties=species:S:1:pos:R:3:REF_forces:R:3 REF_energy=-18720.543207337207 charge=0 spin=1 external_field="0.0 0.0 0.0" config_type=ORCA_DFT source_file=C_DFTprod_cutcluster_0280.out orca_step=0 pbc="F F F"
O        7.95212500      13.30824600      12.70312400      -0.14058726       0.31794799      -0.59291376
H        7.52929500      13.97000900      13.25495000       0.04170643      -0.10596792       0.22076357
H        8.42253100      12.68629200      13.29348800      -0.15780604       0.06477977       0.24953129
O        9.20197600      11.69570400      14.35860100      -2.22197410      -0.91203309       1.49384334
H        8.96482500      11.24405500      15.22105000       0.70839790       0.95658178      -1.71465571
H       10.13500300      11.67618900      14.25550800       1.75137621      -0.15295514       0.37438484
O       12.31970200      11.88880800      12.89814100       0.85631970       0.49913549      -0.18339212
H       12.00000000      12.00000000      12.00000000      -0.83447005      -0.12532802      -0.52859530
H       13.16929900      12.34354200      12.74257500       0.01564969      -0.09188902       0.36699328
O       12.25516000      15.68724900      10.95593400      -0.89020345      -0.90756920      -0.67258896
H       11.34269000      15.25950000      10.99317000       1.31405441       1.12194491       0.61824201
H       12.47872000      16.16108000      11.76283400      -0.62840111      -0.22761957       0.18172888
O       11.81360000      11.18189900      15.44438400       0.41334672      -0.01703063      -0.57354106
H       11.48087600      10.41784100      15.93892700       0.66194501       0.00453805      -0.64287601
H       12.34951600      10.95631000      14.62921100      -1.13758735      -0.09226692       1.34403908
O       14.07872300      13.52975000      11.09347000       0.64980107      -0.36461943       0.88860042
H       14.17616600      12.98384600      10.32121700      -0.06493892      -0.19546973      -0.45716825
H       13.42816500      14.20482400      10.88926600      -0.51877749       0.55664321      -0.21604796
O        9.50141300      14.67753200      10.89980800      -0.37547087       1.95622255      -1.66086993
H        8.85736100      15.33000100      10.52057900       1.08317993      -0.77126637       0.40990751
H        8.96578400      14.21321000      11.53727200      -0.56462268      -1.06110731       1.08068405
O       11.76123500      14.94337800      14.26463400       1.94133894      -1.53178229      -0.99646566
H       12.75339000      14.80436800      14.41102600      -2.07963947       0.35874975      -0.14059061
H       11.57094000      14.19172800      13.62801200       0.16739091       1.12202138       1.09355186
O       11.21877600      12.68042100      10.23073000       0.08987734       0.58988331      -0.03619167
H       10.75326600      13.44128800       9.82630300       0.05342907      -0.61131109       0.53354714
H       11.10977900      11.94448700       9.63869100      -0.13333454      -0.38023230      -0.43992026
27
Properties=species:S:1:pos:R:3:REF_forces:R:3 REF_energy=-18720.342154739436 charge=0 spin=1 external_field="0.0 0.0 0.0" config_type=ORCA_DFT source_file=C_DFTprod_cutcluster_0284.out orca_step=0 pbc="F F F"
O        9.14147000      11.97617200      11.92856000       0.14193637      -0.41302981      -0.29457779
H        8.74162300      12.82142700      11.71465600       0.04190991       0.22218303       0.24947344
H        9.31487200      11.98358800      12.88919900      -0.19882826       0.20441208      -0.13688138
O        9.67667100      12.22292100      14.70111400       0.19785977       0.40240395      -0.32313756
H       10.29563500      12.97397800      14.55458100      -0.21191327      -0.65227771       0.42442298
H       10.20795900      11.41933500      14.74638200       0.11634633       0.24740571       0.03626855
O       11.55473800      10.25017900      12.44933100       0.90702453      -0.46886733      -0.05458056
H       11.61145800       9.67197900      11.66809800      -0.31009090       0.31079456       0.27621888
H       12.42704100      10.11784200      12.88292800      -0.43910167       0.10638876      -0.23059804
O       12.08408000      13.85870900      14.47635700      -1.27097897      -1.11131248      -0.73479912
H       12.88152900      14.32383000      14.57345600       1.55721657       1.18351482       0.71424804
H       12.16227200      13.60308500      13.53107800      -0.18317199      -0.15152006       0.08968554
O       14.06884300      10.60597600      13.92921300      -1.31571365       0.66360234       0.41571846
H       13.44944200      10.76812300      14.68118700       0.85231598      -0.02695190      -0.73739825
H       14.67888500       9.94602100      14.23128900       0.45327004      -0.58151205       0.34475544
O       10.48798500      11.53219600       9.25698700      -0.54065933       0.30250928      -0.50076244
H        9.72077400      11.84783900       8.70175100       1.15092963      -0.51117839       1.62132497
H       10.33513600      11.63678500      10.22536500      -0.72499345       0.19311773      -0.97425873
O       12.36388900      12.90823300      11.91133900       0.04283782      -0.66495901      -0.02568594
H       13.24152400      12.82732100      11.48186900      -0.30697473       0.23062715       0.15332672
H       12.00000000      12.00000000      12.00000000       0.09327639       0.29139898      -0.10577128
O       10.43320400      14.77483300      11.64062000      -2.01711815       1.84310146      -1.21210796
H       11.01710600      14.04667900      11.66530300       1.35996933      -1.50054163      -0.11698335
H       10.11926600      14.81601700      10.70695900       0.45716372      -0.02228771       1.11799678
O       14.98054200      12.93851200      11.07591900       0.53078614      -2.18528708       1.11114402
H       15.43551400      13.77170700      11.23609100       0.20642134      -0.31593739       0.34180197
H       15.32632100      12.19079500      11.69161100      -0.58971942       2.40420275      -1.44884333
27
Properties=species:S:1:pos:R:3:REF_forces:R:3 REF_energy=-18719.9502254073 charge=0 spin=1 external_field="0.0 0.0 0.0" config_type=ORCA_DFT source_file=C_DFTprod_cutcluster_0287.out orca_step=0 pbc="F F F"
O       12.78351200      14.34907900      10.59480800       1.23671557       0.56155808       1.77416323
H       13.39403000      14.95592600      11.12318700      -1.36134431      -1.42527813      -1.03278034
H       12.63973300      13.51757500      11.13049100       0.41180144       0.84185539      -0.49639048
O        9.70978500      12.90664700      10.75700800       0.32558967       0.46437736       1.15979834
H        9.22594000      13.54621500      11.29096000      -0.71755936       0.05235296      -0.30456550
H       10.59367800      13.06970000      11.14750900      -0.12249050      -0.83487053      -0.29708657
O       12.63720800      12.06408100      14.72923800       0.07568742      -0.25480390       0.25431555
H       12.51002600      11.38012300      15.41083200       0.12788272       0.52839367      -0.39375764
H       13.48663900      12.48724100      14.89440100      -0.01362232      -0.20016328       0.22540004
O       12.00000000      12.00000000      12.00000000       0.85054650      -0.93040676       0.72530306
H       12.19553600      12.08704800      12.98012700      -0.36816184      -0.49608205      -1.28090698
H       12.21883600      11.04073400      11.74521300      -0.30256791       1.45526008       0.60532417
O       11.04934900      13.70442400       8.59306100      -1.27254765      -1.37798536      -1.42233798
H       10.46011500      13.35228000       9.27764000      -0.19816594       0.06440418      -0.42344756
H       11.59985000      14.26897300       9.07758900       1.50481424       1.36237733       0.98427195
O        9.46784600      11.78223000      13.65317900      -0.02153597      -1.17636772       0.89634993
H        9.60817600      11.55158500      12.73319500       0.10421926       0.10607704      -0.52879307
H        9.50927600      10.90515700      14.10733900      -0.12337357       1.19345033      -0.44356372
O       12.78241600       9.31800100      11.48536300      -0.30091505       0.31317180      -0.12001874
H       13.52709400       9.15272200      12.05155100       0.40596802      -0.24375726       0.70432949
H       13.22170400       9.50928400      10.64722000      -0.06641422      -0.04584745      -0.79845702
O       13.74425500       9.87955900       8.78795100       0.63337218       1.70947576       0.59789157
H       12.99006600       9.64817200       8.25333700      -0.44596389       0.03212912      -0.35920715
H       13.81300300      10.87693700       8.75261200      -0.26585579      -1.62973685      -0.11469080
O       10.91962500      14.83945400      14.39951200       3.29400537      -0.14302626      -0.48865239
H       10.49844300      14.19149400      13.84543800      -0.68291611      -0.66667795      -0.20163785
H       11.90853700      14.62885300      14.18690000      -2.70716794       0.74012038       0.77914649
27
Properties=species:S:1:pos:R:3:REF_forces:R:3 REF_energy=-18719.350673172372 charge=0 spin=1 external_field="0.0 0.0 0.0" config_type=ORCA_DFT source_file=C_DFTprod_cutcluster_0288.out orca_step=0 pbc="F F F"
O        8.91088600      11.46600300      12.83728600      -0.71539136       1.96112893       2.14155724
H        9.53721800      11.13521100      13.50560800      -0.00306661      -0.39987522      -0.29320719
H        8.48042100      12.18808100      13.42176300       0.70121244      -1.61553994      -1.77015889
O       16.35230900       9.86419600      11.92805200      -0.62579787      -1.96389277      -0.97539979
H       16.03096900      10.76359800      11.90876500      -0.18321569       0.67103226       0.17150817
H       15.78841900       9.34260300      11.29516800       0.96157507       0.95072013       0.93067334
O       13.32885300       9.38573300      14.60225300       1.41828592      -3.44190773       0.12000414
H       14.09957800       8.93227000      14.09725400      -1.73241870       1.47083212       1.04382220
H       13.02261900       8.59132400      15.17166200       0.50265857       2.04166849      -1.25737753
O       10.07474900      11.74393400       9.46372300      -1.15050519      -1.43633033       0.27576384
H       10.42008100      11.98491600      10.32732600      -0.06427995      -0.04121443       0.52694439
H        9.54145300      10.91933100       9.66431100       1.03938098       1.47465875      -0.39192393
O       12.00000000      12.00000000      12.00000000      -0.01418730       2.18894478      -0.64025698
H       12.16989600      11.11415700      12.20357800       0.18314370      -2.37080057       0.32612153
H       11.63962400      12.39341400      12.79671000      -0.18346905       0.08301373       0.08733344
O       10.77048500      10.44519000      15.00117100       0.33546178       0.36642295       0.89033298
H       10.83440300      10.61461800      15.96400800      -0.33378331      -0.07585218      -0.77956527
H       11.70454400      10.42241900      14.74104500      -0.07403410      -0.23970880      -0.16735528
O       15.21335700      12.28476900      12.56475200       1.33704090       0.52203647      -0.39769739
H       14.62383400      12.19830000      11.82821100      -0.97570508       0.16958031      -0.36844744
H       14.76792300      11.96477700      13.33184800      -0.66395289      -0.35169681       0.73100695
O       12.53021500      12.68358500       8.50162100       3.45012410       0.56152049      -0.60552199
H       13.36745000      12.74346200       9.04240100      -1.62656992      -0.03684360      -0.85864748
H       11.83044100      12.52985400       9.09076600      -1.57843598      -0.55160395       1.18824164
O       11.91096600       9.10489100      10.53138400       0.21454464      -0.89506278       0.61950129
H       12.00561400       8.19756800      10.88215600      -0.34710183       0.60324332      -0.09808538
H       12.68231300       9.16448600       9.96735700       0.12848667       0.35552616      -0.44916667
27
Properties=species:S:1:pos:R:3:REF_forces:R:3 REF_energy=-18718.93518480865 charge=0 spin=1 external_field="0.0 0.0 0.0" config_type=ORCA_DFT source_file=C_DFTprod_cutcluster_0292.out orca_step=0 pbc="F F F"
O       10.03143800       7.85521400      15.21307400      -0.55152028       0.09278078      -0.78409880
H        9.55242800       8.11185800      15.99937600      -0.00083103      -0.00594244       0.43693001
H        9.47775300       8.22157200      14.48853500       0.86042673      -0.10541457       0.48741538
O       14.04187900       9.38072800       7.90367200      -0.46256931      -1.90674953      -1.47723792
H       13.96293100       8.94506400       6.99878600       0.49813693       1.23712932       1.81783188
H       14.32559800      10.27501100       7.76457400       0.16580382       0.66129267      -0.33789240
O        9.64031000       9.15007000      12.66074100      -0.13032157       0.65457036       0.46645003
H       10.38885500       8.66910400      12.31121300       0.03281787      -0.48413434      -0.20409598
H        8.86453600       8.59591200      12.58438200      -0.09320630      -0.28610395      -0.54418020
O       14.27655700       8.67069200      12.70179900      -0.17831620       0.87806527       0.46709343
H       14.25240800       7.89654900      12.16342000       0.22638087      -1.10165351      -0.51752485
H       13.40788500       9.04796700      12.53700300      -0.01182486       0.23106105       0.14380099
O        9.42102800       6.74850100       9.61095800       1.55349731      -0.02396819      -0.23531057
H       10.37297900       6.55786500       9.82152900      -1.33983029       0.20947499      -0.16871503
H        9.49075800       7.19020500       8.74605700      -0.15950097      -0.14188454       0.51290118
O       15.87065900       8.63493300      15.29492200      -2.87594453      -0.27686829      -1.65304334
H       15.41885400       8.80491500      14.39476000       1.19905200      -0.40002260       1.93786585
H       16.75298200       8.92501600      15.24695500       1.59739319       0.62980601      -0.36704125
O       12.02946400       6.26597700      12.96618900       0.62723938       1.76247520       1.17224737
H       11.38895600       5.58488400      13.08330900      -0.76136006      -0.84896321       0.11490683
H       12.00031500       6.75931900      13.83469900       0.04876324      -0.73443238      -1.27413984
O       11.15314100       8.87617000       6.61022500       1.03230700       0.52234196       0.16654147
H       12.04271800       8.45744900       6.54366900      -1.67910666      -0.00661905       0.08095062
H       10.41986200       8.27716400       6.47491900       0.40927898      -0.55644940      -0.26202073
O       12.84904600      12.31027400      12.00361400       3.13132379       1.24941194      -0.19866993
H       13.28254100      11.78157800      12.66628500       0.45830406      -0.14486023       0.37418594
H       12.00000000      12.00000000      12.00000000      -3.59639299      -1.10434345      -0.15515015
27
Properties=species:S:1:pos:R:3:REF_forces:R:3 REF_energy=-18719.65845223561 charge=0 spin=1 external_field="0.0 0.0 0.0" config_type=ORCA_DFT source_file=C_DFTprod_cutcluster_0297.out orca_step=0 pbc="F F F"
O        8.34485500      12.06550200      11.91639700      -0.37531789      -1.10527069       1.02497143
H        8.40473500      11.96873500      10.96649200      -0.11639873       0.05816417      -0.75528506
H        7.91837300      11.23835800      12.24599200       0.51427508       1.11390708      -0.41039026
O       11.98995100      13.39909100      14.49939000      -0.71008460      -0.35943896      -0.38738485
H       11.98478800      12.71475100      13.73918100      -0.98609157       1.54913158       1.67936979
H       11.09750400      13.64494100      14.90164100       1.76285567      -1.07600758      -1.45344365
O       13.14054200       9.94080100      14.30120900       0.52598121      -0.55802070       1.08006010
H       13.90144200      10.50676900      14.16264000      -0.16301207       0.14603795      -0.22204753
H       12.54518900      10.03075300      13.57512900      -0.34026033       0.38290815      -0.77958903
O       12.00000000      12.00000000      12.00000000      -0.17245264       0.53516874       0.70495227
H       12.88371300      11.90166200      11.63344500       0.10252537      -0.38906296      -0.47469649
H       11.43777400      11.24208700      11.83258600       0.15185368      -0.11192501      -0.39662823
O       14.99517000      12.92653700       8.35117500       0.09119030       0.09841068      -0.66322979
H       14.90249200      12.79474300       9.31562800       0.22184267       0.20214513      -0.65714239
H       15.90338200      13.17868400       8.14543600      -0.26314898      -0.05082105       0.22861876
O       15.26220400      14.19517100      13.21139700       1.63620215      -1.68695773      -0.48529026
H       14.33441500      14.39240200      13.32691000      -0.55561636      -0.57180279       0.58113760
H       15.52055000      13.25278800      13.46401100      -1.23691849       2.11377997      -0.05103645
O        8.74205500      12.93323800       9.12347200      -0.39330101       0.16303408      -0.73326407
H        8.32024100      13.37724800       8.36812700       0.05561183      -0.51153495       0.32357942
H        9.21135400      13.65988400       9.54127900       0.39390964       0.28459718       0.61881963
O       14.76397000      12.39438500      10.82571100      -0.08166071       1.82691389       2.26025737
H       15.52873200      11.83707000      10.91894700       0.53657636      -0.63936378      -0.00736441
H       15.00189700      13.20118100      11.40767100      -0.55795128      -1.31877789      -0.99117844
O        9.81710700      14.52587300      11.31535100       1.21055218       0.49042316      -0.34922963
H        9.36226200      13.83700400      11.81943300       0.53950248      -0.11605714       0.20962170
H       10.80127000      14.51204900      11.46892000      -1.79066401      -0.46958066       0.10581242
27
Properties=species:S:1:pos:R:3:REF_forces:R:3 REF_energy=-18720.05333767982 charge=0 spin=1 external_field="0.0 0.0 0.0" config_type=ORCA_DFT source_file=C_DFTprod_cutcluster_0407.out orca_step=0 pbc="F F F"
O       11.70711000      15.32774700      12.19039100      -2.22991614       0.68690944       1.77188210
H       11.70616300      16.11973000      12.81884000       0.11778168      -1.64390579      -1.28171101
H       10.82973900      14.84952700      12.42753100       2.06849631       1.05838230      -0.44040291
O       11.97279200      14.50205400      15.77471900      -2.06264679      -0.69807276      -1.09888489
H       11.08435500      14.26953000      16.13270100       1.02428351       0.41396410       0.54957627
H       11.68331600      14.25284000      14.85581000       1.08388245       0.29888434       0.64131093
O       13.73387700       9.53388000      12.23151400       0.38785562      -0.67201252      -0.65803955
H       12.96644400      10.10790300      12.24729700      -0.07220949       0.50281248       0.57340464
H       14.08290600       9.40618600      13.11606300      -0.41517802       0.24381922       0.21369597
O       15.61502300      13.16879600      12.37337100       0.10353262      -0.23596368      -0.10433414
H       15.21776100      13.70759900      11.64959200       0.47839908      -1.09443051       0.46942552
H       15.96499000      12.29149000      12.08253300      -0.53854907       1.13758468      -0.31181082
O       12.00000000      12.00000000      12.00000000      -0.11540516       0.39475698       1.27431050
H       12.61478900      12.71040800      11.80871300       0.64604495       0.48614499       0.27062061
H       11.93003100      11.56390100      11.16360300      -0.46285301      -0.67881510      -1.30504172
O       13.77751800      14.39190500      10.60951400      -1.55683877       0.20616891      -0.75713193
H       13.52390900      14.00246700       9.73542900       0.26834662       0.80576353       1.19209834
H       13.00029400      14.94605900      10.94828100       1.15894155      -1.04003085      -0.51973209
O       10.27879400      13.33941200      13.71120500      -2.30249607      -0.67727254       1.26116163
H       10.73875100      12.82043200      13.03658500       0.13876749      -0.76039173      -0.10421803
H        9.51549800      12.78451200      14.11254800       2.14530786       1.31435405      -1.32433219
O       16.32926700      10.29941900      11.51778500      -0.73015293      -0.44222556       0.76335323
H       15.35530200      10.07961700      11.53160300       1.08550868       0.21584968       0.07435292
H       16.66142800       9.92472200      12.36178000      -0.23010131       0.35295906      -0.83564983
O       11.78743200      10.92631800       9.55388400       0.91211367      -1.66367408      -0.53759632
H       12.33502200      10.12275200       9.28520100      -1.00618006       1.75662347       0.39040209
H       11.98994000      11.64335000       8.94343900       0.10326482      -0.26818217      -0.16670926
27
Properties=species:S:1:pos:R:3:REF_forces:R:3 REF_energy=-18719.738722015332 charge=0 spin=1 external_field="0.0 0.0 0.0" config_type=ORCA_DFT source_file=C_DFTprod_cutcluster_0413.out orca_step=0 pbc="F F F"
O       12.97388600      11.75799200      13.64854500       0.41728092       0.87575868       0.93820070
H       12.30635000      11.40845600      14.24018500      -0.30599313      -0.50407510      -0.03723132
H       13.31822800      12.48883700      14.20882800       0.30556941      -0.31323048      -0.66910605
O        8.27837700      11.86968300      12.03738600      -1.57129403       1.57048372       1.04515773
H        7.99001400      12.53816300      11.36637200       0.81093736      -0.68955598       0.18365792
H        7.79457000      12.26588500      12.81889200       0.87760129      -1.01777147      -0.96571737
O       10.84548800      15.78066400      12.41689800      -0.69070758       0.30827982      -0.03534892
H       10.65980500      14.85370300      12.22361900      -0.26399225      -0.17275171       0.13938080
H        9.98993400      16.26249600      12.40844700       0.76173323      -0.59604187      -0.01364490
O        8.19904100      14.12918300      10.38389200      -0.20274112      -0.09909526       0.51502548
H        7.39605500      14.51111600      10.03658900      -0.26297441       0.21807919      -0.24936633
H        8.91471400      14.45031400       9.83890500       0.46785406      -0.04722891      -0.43916836
O       12.15702700      15.79037500       9.78709900       1.49846058       0.07865262       0.94542767
H       12.94820600      15.85860000      10.38720400      -1.03082424       0.01686567      -1.10761148
H       11.48959700      15.53391300      10.42681100      -0.27265194       0.06726706      -0.02221906
O       11.09818700      12.04086600      11.67470100      -0.38563779       0.33988536      -0.43847504
H       10.47157000      11.77207300      12.36195900       0.21768226       0.04635190      -0.31188708
H       12.00000000      12.00000000      12.00000000       0.04675217      -0.22156113       0.72238291
O       10.81236000      12.78630800       9.02901800       0.97676957       0.00889108       0.76354175
H       10.06469400      12.35913400       9.43244100      -0.89881958      -0.37706665      -0.03449999
H       11.44076100      12.57134700       9.76027000      -0.37353920       0.48821643      -0.93648902
O       14.35897300      14.11361500      15.49403900      -2.36066189       1.56181036       0.17865085
H       14.25059300      15.01756700      15.10215000       0.75616859      -0.87736213       0.01526413
H       13.48370700      14.17339300      15.97440700       1.35277328      -0.67994129      -0.22101199
O       12.52216700      16.98842900      14.32879100      -0.24929254      -1.19172204      -0.72457338
H       11.99866500      16.35726300      13.75576600       0.47480437       0.98359323       0.68455138
H       13.33853000      17.09665300      13.82570700      -0.09525732       0.22326891       0.07510897
27
Properties=species:S:1:pos:R:3:REF_forces:R:3 REF_energy=-18719.785385760635 charge=0 spin=1 external_field="0.0 0.0 0.0" config_type=ORCA_DFT source_file=C_DFTprod_cutcluster_0415.out orca_step=0 pbc="F F F"
O        9.24477100      11.00453100      13.21645500       2.11580841       0.88468283       3.04461569
H        9.46578300      11.00727900      14.22889700      -0.96426686      -0.18638530      -2.96205849
H        8.46063300      10.50784500      13.08323300      -1.20207752      -0.76026349       0.01558227
O       15.76912900      10.54854700      11.93539200       0.17645169      -0.76899187      -0.08803622
H       15.09751100      11.07774900      12.37986000      -0.25938602      -0.21501664      -0.23639300
H       15.40158800       9.65846600      11.76358700       0.11316269       0.94728621       0.20616243
O       11.28343200      11.66918800      11.39958600       0.73649096       0.26761941       0.68939226
H       10.77099300      11.08326100      11.97267500      -0.21040162       0.03471313      -0.08957045
H       12.00000000      12.00000000      12.00000000      -0.53756336      -0.43564719      -0.82234226
O       12.32879700      11.57307800       8.51108700      -1.33679654       2.17025420       0.02106412
H       11.79703800      12.43904800       8.69598300       1.55156708      -2.18445975      -0.27756125
H       12.15775600      11.02642500       9.28035800      -0.08991935       0.06680205       0.25078984
O       13.48748700      12.04048200      13.13047700      -0.27337215      -1.51560213       0.99433658
H       13.77664700      12.91017800      13.36871500       0.35919995       0.93006116       0.23882059
H       13.48386000      11.50828000      13.96602400       0.01973533       0.77782906      -1.02527518
O       11.35848100      14.09197200       9.71802500      -0.14489818       0.24830935      -0.27747142
H       10.93028500      14.93297800       9.50514400       0.16010389      -0.26454725       0.16482464
H       11.13318700      13.90644200      10.63818600      -0.15579734       0.08410871       0.11758257
O        8.89247200      11.96388100       9.70870800       0.88469589       0.55992275       0.20079489
H        9.85308700      12.11198300       9.96512700      -1.55597755      -0.04151571      -0.63096383
H        8.64008400      12.63708100       9.04776000       0.60906826      -0.54512091       0.43748419
O        9.18893900      13.88156500      12.05724000      -1.43153399       1.82185242      -1.54001984
H        9.42878600      13.01628500      12.31614700       0.30067053      -1.72475223       0.31198226
H        8.54433300      13.75079200      11.30429100       1.15979793      -0.05160251       1.29346507
O       11.94997600      15.34283800      13.36429100      -1.28550720      -0.36888725       0.99347567
H       11.09115300      15.82031100      13.46058700       0.95252694      -0.34855985      -0.41266435
H       11.77502500      14.57740300      13.95593900       0.30821816       0.61791085      -0.61801683
27
Properties=species:S:1:pos:R:3:REF_forces:R:3 REF_energy=-18719.40665661809 charge=0 spin=1 external_field="0.0 0.0 0.0" config_type=ORCA_DFT source_file=C_DFTprod_cutcluster_0420.out orca_step=0 pbc="F F F"
O       12.84216800       8.43562500      14.52032700      -1.02217680      -1.21211361      -0.69597228
H       12.96286200       9.30232200      14.08945000      -0.71006938      -0.60744780      -0.13819336
H       12.12241900       7.89215300      14.06074100       1.58345025       1.64210221       0.76662398
O       11.01074800       9.34396600       8.99409100       0.65194074       0.33437729       0.06907665
H       11.71538400      10.02974900       8.93817300      -0.69270327      -0.64002856       0.06715203
H       11.26799100       8.72808700       9.69549600       0.05652560       0.37690946      -0.19175335
O       13.72599100       9.31053200      11.10559700      -0.09510254      -0.32226760       0.74892744
H       14.04031900       8.57366400      11.64625500      -0.21187990       0.23072418       0.25913580
H       14.11159200       9.11647200      10.26495300       0.36412207       0.01390489      -1.07856300
O       12.06419900      11.63082300      11.09224800      -1.52827720       1.95370045       0.07089010
H       12.00000000      12.00000000      12.00000000       0.55745964      -0.80034462      -0.94754415
H       12.68123300      10.92209700      11.07470800       0.93331299      -1.04974905       0.61199572
O        9.09123600      11.68746600      10.26905000       0.46977318       1.07021565       0.23581090
H        9.86684400      11.15850500      10.51723300      -0.13148417       0.07944015      -0.20328665
H        9.40998400      12.61466200      10.36149300      -0.35328801      -1.08443355      -0.09983409
O        8.95264700       9.63809900      13.43911400       1.43892457       1.13740203       1.42966562
H        9.73073900      10.05765600      13.90389800      -0.71542278      -0.98379511      -1.12410341
H        8.28358400      10.03873500      14.00461000      -0.70191214      -0.24524531      -0.30472213
O       12.70553800      11.92767200       8.17609800      -0.08370844       0.69434909      -1.96551410
H       12.29300000      12.46719100       8.84176700      -0.44353878       0.19331756       0.91018956
H       12.44220200      12.39516700       7.32970700       0.52524572      -1.03575850       1.34434242
O       12.57330100      11.17326500      13.80998600      -0.62066687      -0.02099753      -0.18499315
H       13.31747400      11.43758600      14.33450500       0.82241451       0.37358656       0.38658010
H       11.81733200      11.39561100      14.36271900      -0.07330493      -0.06690222       0.07414831
O       15.03244200      13.42774900      10.17259400      -0.18601989      -3.67872044       0.76943816
H       14.50631000      12.76003200       9.66357800       0.67945026       0.51114008       0.77584196
H       14.83839900      14.18298200       9.70889300      -0.51306434       3.13663430      -1.58533924
27
Properties=species:S:1:pos:R:3:REF_forces:R:3 REF_energy=-18719.468860640914 charge=0 spin=1 external_field="0.0 0.0 0.0" config_type=ORCA_DFT source_file=C_DFTprod_cutcluster_0423.out orca_step=0 pbc="F F F"
O       12.00000000      12.00000000      12.00000000      -0.58129243      -0.50586417       0.36321998
H       12.71436600      12.62320400      12.02551000       0.78025891       0.55824094       0.18058607
H       12.37209100      11.20475800      12.40755900      -0.02536949      -0.11843638      -0.34828598
O       11.52292800       9.11591700      10.15813500      -1.71438009      -0.39651155       0.42357231
H       12.41868300       9.16547200      10.45671800       0.79250487      -0.14440237       0.44640232
H       10.96671800       8.77429500      10.92234700       1.17249486       0.73549137      -1.14714229
O       15.32883300      10.39249600      11.52845700      -0.34964419       0.48819946      -0.06228986
H       14.81857100      11.24453800      11.57310100       0.68295437      -1.53310944       0.24355496
H       14.86819300       9.66391000      11.98483300      -0.01121736       0.76779070      -0.39511390
O       10.48616700       8.77569400      12.67919100       0.55987555       0.57519701       1.35924284
H       11.16284300       9.28573400      13.20542900      -1.18173705      -0.69639625      -0.79302536
H        9.68160900       8.74261400      13.22532200       0.48414596       0.09367784      -0.27651065
O        9.39578400      14.00413700      10.65553100       2.53218024      -0.92539090      -0.77270732
H       10.12661600      13.30643200      10.71715200      -1.58051544       1.32350682      -0.28506517
H        8.76217100      13.75475700      11.29773800      -0.94050642      -0.45142003       1.00774082
O       14.91012900      12.99835400      12.28346400      -1.30392149      -0.65351179      -0.42267474
H       15.50014900      13.18417500      13.00277500       0.53801505       0.56188486       0.09875186
H       14.85812800      13.68554200      11.62003000       0.58292497       0.49969846       0.22475110
O       12.11751700      11.38789800      14.96651500       0.12027832      -0.94474931       0.32045116
H       12.58364000      11.84102700      15.66656600       0.05490591       0.26932626       0.19973997
H       11.98571300      12.00859200      14.25987300      -0.21335556       0.69113115      -0.55411026
O       11.86165300      12.52484600       9.01182300       1.21495910      -0.54982043       2.45641080
H       11.84945200      11.59518400       9.37104600      -0.32569627       0.91004193      -0.76994256
H       12.35933400      12.94354200       9.78257900      -1.00869203      -0.49666873      -1.73541383
O       13.57989100       9.22147500      13.30785100       0.81760490       1.90651731       0.16269700
H       13.10765500       8.68574100      13.92313300      -0.45288037      -0.77286518       0.77612077
H       13.93299900       9.98042700      13.85234800      -0.64389483      -1.19155754      -0.70096006
27
Properties=species:S:1:pos:R:3:REF_forces:R:3 REF_energy=-18720.09144825116 charge=0 spin=1 external_field="0.0 0.0 0.0" config_type=ORCA_DFT source_file=C_DFTprod_cutcluster_0427.out orca_step=0 pbc="F F F"
O       13.55334000      15.12516500      11.37505700       0.66151810      -0.51242002      -1.47229014
H       13.50954900      15.35750600      10.39748300       0.16974666      -0.61919851       1.95083927
H       14.17746500      14.33681500      11.43415100      -1.05232972       1.40969169      -0.44171263
O       12.82342400      11.32663700      10.29946700      -2.75945272      -3.13366694       0.71782609
H       13.58424100      11.84307000      10.41767000       2.16079377       1.20799393       0.38269377
H       12.83733400      10.50016200      10.88701100       0.32918793       1.96095950      -1.10887327
O       14.98401500      12.85237900      10.82257500       0.03372203      -1.97695438       1.88667096
H       15.75410900      12.89214100      10.26013200       0.40916564      -0.04922814      -0.15606459
H       15.17907500      12.13616300      11.55132500       0.27826275       1.95771009      -1.41579112
O       12.09526600      10.04250500      14.87097000      -0.47193250      -0.71383512      -0.07189669
H       12.94538300      10.34623300      15.16484000       0.49981231       0.31857590       0.16566113
H       11.86899400      10.59847400      14.10775800       0.10774754       0.25285382       0.00792347
O       15.88475200      11.27633200      13.07418300       0.54493286      -0.53089484      -0.40451164
H       15.09791400      10.71578400      12.97903200      -0.22381146      -0.08549165       0.27375967
H       16.59728300      10.61931600      12.93620000      -0.32034549       0.69954549       0.16459401
O       12.51288900      14.04835300      15.03665000       0.14748600      -0.23593329       0.10406921
H       11.88496100      14.77028700      14.87946800       0.32678569      -0.27417881       0.62354203
H       12.64355800      13.87113500      15.99002200      -0.50964519       0.50780325      -0.87450923
O       12.28099400      11.18898100       7.61138100      -0.78709768       0.83614374       0.74038994
H       12.40750200      11.22613400       8.59653100      -0.00132746      -0.15186083      -0.92179048
H       11.54847800      11.83071300       7.47611400       0.75120467      -0.70863969      -0.03498140
O       13.98833300       9.54832500      12.24734500      -0.43809081      -1.59339101      -0.01822105
H       13.64246300       8.74460400      12.70513500       0.07003747       1.05907316      -0.04750808
H       14.39876900       9.16038100      11.46188600       0.14425186       0.15049506      -0.04016063
O       11.76875000      11.92329900      12.92438100       0.00371386       0.63624853       0.44982636
H       12.00000000      12.00000000      12.00000000       0.00275159      -0.06702794      -0.68292341
H       11.99984800      12.79036200      13.30097500      -0.07708769      -0.34437307       0.22343850
27
Properties=species:S:1:pos:R:3:REF_forces:R:3 REF_energy=-18720.219427868073 charge=0 spin=1 external_field="0.0 0.0 0.0" config_type=ORCA_DFT source_file=C_DFTprod_cutcluster_0433.out orca_step=0 pbc="F F F"
O       15.01866200      14.49797300      10.55858700      -0.46350859      -1.15220567       0.61137938
H       14.13140500      14.89858500      10.49461400       0.35222105      -0.10316645      -0.32694937
H       14.85146400      13.58630900      10.92042100       0.22321245       1.37079178      -0.43904454
O        9.81130600      14.00410000      13.16975400       0.43474272       1.32174572       0.11541287
H        9.70727400      14.91521200      13.52481800      -0.10390363      -1.11986042      -0.16781700
H        9.26499600      13.40252100      13.66795600      -0.30972601      -0.19352011       0.45425652
O        9.73269600      14.05504100      10.44876300      -0.52754896      -0.69229668       0.92437408
H        9.64453800      14.07831900      11.45441600       0.02428567      -0.40570309      -1.77869295
H        9.37518300      13.18235500      10.14056400       0.67019007       1.09408686       0.50023140
O       10.77820200      11.40553700       9.46659900       0.27196057       1.42840830       0.34438685
H       10.72873400      10.48952900       9.65712200      -0.17900202      -1.44560111       0.08956325
H       11.20978100      11.76019600      10.27699200      -0.15550938       0.01428433      -0.39429731
O       12.00000000      12.00000000      12.00000000       0.38178288       0.41231010       0.27350282
H       11.93638000      12.91665900      12.33780300      -0.24657226      -0.38999108      -0.14667214
H       12.97784000      11.87340800      12.00675100      -0.64778944      -0.05425028      -0.04607649
O       10.68644900      10.86984000      14.51425400       0.40591855      -0.89822061      -0.73395169
H       10.87673300       9.99179200      14.92194000      -0.20220406       1.05391121      -0.75726743
H       10.96367100      10.83291900      13.55440400      -0.14121168       0.06289803       1.41982981
O       12.94476700      14.60976600      13.17870500       0.32392298       1.82806539      -0.84811125
H       13.12573900      15.54446100      12.80807500      -0.38922514      -2.21140620       1.23415604
H       12.65021500      14.67288200      14.10031700       0.11165459       0.34934857      -0.44584686
O       14.68449100      11.92311900      12.03204100      -0.38249847       0.61342073       0.14479755
H       15.12447200      12.04072000      12.87340100       0.18559294       0.05465564       0.24069106
H       15.11492700      11.21981500      11.57361500       0.60267588      -0.80363239      -0.43724184
O       12.42632400      15.71566800      10.04930000      -0.20821607       0.35569919      -1.96887690
H       11.98439100      15.17681900      10.69432200      -0.85484728      -0.61944220       0.15235099
H       11.95575400      15.54983100       9.17266500       0.82360262       0.12967051       1.98591308
27
Properties=species:S:1:pos:R:3:REF_forces:R:3 REF_energy=-18720.45851248962 charge=0 spin=1 external_field="0.0 0.0 0.0" config_type=ORCA_DFT source_file=C_DFTprod_cutcluster_0445.out orca_step=0 pbc="F F F"
O        8.32850000      12.61738600      10.19217200      -0.80266453       0.79021041       0.01632717
H        9.13721600      12.09150500      10.32298500      -0.49117304      -0.43158382       0.54100931
H        7.60367000      12.44695400      10.83412300       1.31573885      -0.23560573      -0.51732538
O       10.53669300      10.99967000      10.70594800       0.99284498       0.13229350      -0.82599868
H       10.27752600      10.11694500      10.96050700      -0.16447086      -0.37309137       0.05809434
H       11.10607000      10.89810800       9.88810400      -0.44162865       0.40435383       0.58228050
O       12.07907700      11.61957300       8.30518400       0.88641035       0.39061087       0.03178866
H       11.72389000      12.54701600       8.33635600       0.48546262      -0.78497421       0.06292791
H       13.08413400      11.67373300       8.26422100      -1.88203115       0.27040556       0.24156760
O       14.68794200      12.26452500       8.92549000       2.45978594       1.27034489      -1.05380569
H       14.71403500      12.55604900       9.83938600      -0.32272988       0.00741594       0.34177091
H       15.48036700      12.76499900       8.52327700      -1.95183506      -1.25359379       0.75705768
O       10.82664100      14.17501600       8.91524000      -0.03068627       0.54472033       1.45542098
H       11.31468000      14.54948200       9.71371700      -0.70292140      -0.42889141      -1.31953518
H        9.87766700      14.16110000       9.17139800       0.80457116      -0.13402324      -0.17209207
O       12.51062200      12.78725700      12.18114400       0.61260631       0.52542734       1.46818702
H       12.73750700      12.81897700      13.17174700      -0.37080195      -0.37250115      -1.89399146
H       12.00000000      12.00000000      12.00000000      -0.47502369      -0.32345488      -0.19695145
O       13.44911700      12.83302400      14.61963200       0.65571738      -0.97944131      -0.79346810
H       13.16239100      13.45710200      15.25007300      -0.45237551       1.01278713       1.29429718
H       13.70128700      12.02599500      15.07680100      -0.03185648       0.05665894       0.09510033
O       12.65762600      15.22984000      11.03543200       0.07084238       1.87879110      -1.06118465
H       12.55603900      14.39218200      11.45232000      -0.15729136      -1.61158692       1.06041666
H       12.40895000      15.92375900      11.65739000       0.01094580      -0.31371559      -0.09877871
O        8.57677800      12.96632800      13.20513300       0.33091777       0.20000479       0.00825982
H        9.08229700      13.32155200      12.43085000      -0.28386735      -0.30724515       1.38616543
H        8.98464400      13.16305000      14.07856200      -0.06448636       0.06568403      -1.46754008
27
Properties=species:S:1:pos:R:3:REF_forces:R:3 REF_energy=-18719.89747127284 charge=0 spin=1 external_field="0.0 0.0 0.0" config_type=ORCA_DFT source_file=C_DFTprod_cutcluster_0450.out orca_step=0 pbc="F F F"
O        9.51351200      12.55083400      15.22047000       0.38435763       2.22442061      -1.03530902
H       10.21015600      12.53262000      14.53786000      -0.20751653      -0.18136332       0.50676581
H        9.38015200      11.71047200      15.58239100      -0.09826351      -2.04896312       0.47899105
O       15.12106400      13.79729700      12.39910300       1.23710242       0.93567629      -0.10755563
H       15.87095200      14.37313200      12.66709400      -0.70466235      -0.47831794      -0.56759133
H       14.74531000      13.54269200      13.23826800      -0.48744973      -0.52034555       0.58333985
O        9.17186500       9.71878000      11.62038300       0.76765618      -0.40836269      -0.97197564
H        9.54352600      10.52652700      11.95347600      -0.36918273       1.23785401       1.27513141
H        9.84958500       9.67863000      10.92673000      -0.46261657      -0.91202991      -0.28055921
O       13.64231900       9.34160200      12.33614500       1.94411430      -0.23384889       0.91130264
H       14.33903200       9.60710800      13.02586800      -1.34619259      -0.90677488      -1.82831987
H       14.02650300       8.65069600      11.74096900      -0.31018531       0.97148677       0.96164459
O       11.47623800      14.10330500      13.79992200       0.52922105       0.40510495       0.01020399
H       11.76653900      14.74153900      13.12863400      -0.38029899      -0.36284984       0.11003222
H       12.31417100      13.67429300      14.06899500      -0.67810516       0.17546407      -0.14395947
O       12.58134200      13.69342900      11.24741000      -0.18159302      -0.04230946      -0.27591719
H       12.43807600      13.70251200      10.29583000       0.09828187       0.07199408       0.00202552
H       13.51988600      13.88607300      11.39726600       0.14944091      -0.04918428      -0.04031655
O       13.68583500      12.77084900      14.63584800      -0.27852140      -1.96323605      -0.11333799
H       13.37447300      11.85639200      14.84491000      -0.03315787       0.80540070      -0.95336158
H       13.97467600      13.01145700      15.49634000       0.58533564       0.99481054       1.30950732
O        9.01135600      12.77893100      12.10473900      -1.87390986      -0.46221316      -0.26055464
H        8.87597900      12.82452400      13.04979300      -0.22934319       0.06011872       0.50680545
H        9.91275100      12.96924900      12.00153500       2.05190055       0.53627210      -0.16085008
O       11.67219200      11.25417800      12.56248000       0.91664226       0.19373300      -0.44023044
H       12.00000000      12.00000000      12.00000000      -0.23070408      -0.51252580       0.66583658
H       12.36565700      10.55898200      12.47029700      -0.79234993       0.46998911      -0.14174786
27
Properties=species:S:1:pos:R:3:REF_forces:R:3 REF_energy=-18720.38849445784 charge=0 spin=1 external_field="0.0 0.0 0.0" config_type=ORCA_DFT source_file=C_DFTprod_cutcluster_0455.out orca_step=0 pbc="F F F"
O        9.87203900       8.45455300      15.94004900       0.18045700      -0.30789816       0.24582530
H       10.42826900       9.24361800      15.91684600       0.11466339       0.22911565      -0.08217946
H        9.24836900       8.59745800      15.23026400      -0.23331339       0.10272386      -0.22839337
O        9.43379800      10.50194300      11.18853100       0.89738346       0.38774789       0.38778229
H       10.35404100      10.65460900      11.52612200      -1.27853406      -0.12566520      -0.14869195
H        8.78355800      10.97533500      11.73688700       0.43239639      -0.13945613       0.01227743
O       14.33795600       9.54594200      10.41056600      -0.36415118      -1.21949957      -1.00679687
H       14.15061100       9.98384200       9.55246500       0.16312211      -0.40684918       0.74753087
H       14.19191800       8.57309700      10.23123700       0.26004304       1.60960789       0.24817087
O        6.92969600      11.77940700      12.72570000      -1.01637541       1.32145086      -2.73688882
H        7.15543100      12.40578700      13.41374900       0.01184764       0.30228436       0.14555849
H        6.55011800      12.35411800      11.94261100       1.15480886      -1.65086901       2.50480812
O       10.81837600       7.95135500      13.10135000      -0.72716747      -0.93215208      -0.14751119
H       10.04535200       7.48711600      12.68673200       1.14307116       0.62514825       0.65977541
H       10.99824800       7.52163800      13.96378600      -0.41022700       0.34594864      -0.57915538
O        8.62472100       8.74256800       9.25979900      -0.94567043       0.24882845      -0.19834103
H        7.69077200       9.04322000       9.21152200       0.98978619      -0.36070122       0.02181761
H        9.04518700       9.39805100       9.84375800      -0.15582167      -0.08002225       0.06705967
O       12.02657800      12.96662100      12.11021600      -0.09674244      -0.47848660       0.01298315
H       11.93545700      13.26958100      11.20939100      -0.05650663       0.42938850      -0.31375586
H       12.00000000      12.00000000      12.00000000       0.14807432       0.12684502       0.40310669
O       11.49582600      10.80746400      15.20820800       0.31471575      -0.44214704      -0.18996361
H       12.02069200      10.55992100      14.43104300      -0.03806390      -0.14698622       0.02866338
H       11.21773500      11.68937400      14.97995900      -0.25618263       0.58357135       0.05121103
O       12.28346900      10.15360800      12.24992200       1.20308899       0.54492438      -0.57750216
H       11.91441400       9.27678800      12.37537500      -0.42911242      -0.62240720       0.19169586
H       13.12952900      10.03168200      11.73202000      -1.00558974       0.05555470       0.48091352
27
Properties=species:S:1:pos:R:3:REF_forces:R:3 REF_energy=-18719.034759944232 charge=0 spin=1 external_field="0.0 0.0 0.0" config_type=ORCA_DFT source_file=C_DFTprod_cutcluster_0457.out orca_step=0 pbc="F F F"
O        9.82629000      12.77080500       9.35874500      -1.19545497      -3.13560812       1.66408401
H       10.23172700      12.71024600       8.50912700       0.45952862      -0.19644603      -0.98057969
H        9.68645800      11.79220800       9.71051200       0.40419113       2.95829676      -1.06672960
O        9.50086700      10.31056400      11.04110900       0.07729714       0.45356958      -1.04687266
H        9.30911800       9.48477000      10.62790400      -0.08792109      -0.96777616      -1.62259278
H        9.36795400       9.97083400      11.89768600      -0.24522896       0.28009374       2.64088361
O       10.54319100      10.57563700      14.83576300      -2.01421512      -3.25675486       4.26725756
H       10.95031400      11.14586000      14.28480900       2.79084239       2.72940927      -2.96590275
H       11.08591500      10.40868600      15.65215600      -0.68045783       0.42621741      -1.53573572
O       13.92030500      12.08145900      14.86182100       0.78767613       0.45243156       0.40651499
H       13.12639600      12.25445300      15.35663800      -0.42082123       0.05434150       0.15227324
H       13.69332900      11.46977700      14.17553600      -0.43766638      -0.57186769      -0.65065457
O       16.78283900      11.64080200      12.09449500       0.75529293      -0.58661091       0.99298804
H       15.85940000      11.59815700      12.39563600       0.67834885      -0.07140155       0.12693249
H       17.37359400      11.25879700      12.80640300      -1.42589155       0.68294054      -1.13095787
O       11.11331800       8.69754800       8.37509200       0.92640037      -1.02083509      -0.20394948
H       11.42145800       8.70927900       7.46080900       0.03318533      -0.09362992       0.15112817
H       10.47934600       9.38372700       8.41235500      -0.98663865       1.14115116       0.02366829
O        9.86159600      13.61003200      14.61925500       0.22718969       2.56115560      -0.73478987
H       10.55195900      13.97041300      15.18735100      -0.16566915      -0.30252343      -0.04604023
H        9.77303000      12.70300500      14.76518700      -0.12259196      -2.28436193       0.77133018
O       11.23661500      13.99863800      11.17370900       0.01694794      -0.71557015       0.10518199
H       10.81592700      13.44382200      10.46833800       0.26851765       0.74977745       0.44274143
H       10.65023200      13.86408000      11.92724600      -0.02436048       0.31624947       0.13589279
O       12.01112400      11.03780700      12.06497100      -1.08349196      -0.77349737      -0.16431778
H       11.19905500      10.68747800      11.58218800       1.62194065       0.94035236       0.71411002
H       12.00000000      12.00000000      12.00000000      -0.15694951       0.23089675      -0.44586393
27
Properties=species:S:1:pos:R:3:REF_forces:R:3 REF_energy=-18719.687861158476 charge=0 spin=1 external_field="0.0 0.0 0.0" config_type=ORCA_DFT source_file=C_DFTprod_cutcluster_0458.out orca_step=0 pbc="F F F"
O       10.83217500      13.54459200       8.34845400       0.58192245      -1.00025032      -1.34754489
H       10.00139500      13.31748500       8.74654100      -0.87974749      -0.06757029       0.57960172
H       10.97135800      12.78758100       7.72878100      -0.00681219       0.99127039       0.59528237
O       12.38835600      12.79690000      12.47337100      -0.16447641      -1.05248630       0.06064127
H       13.16313200      12.57288900      13.11013700      -1.64767431      -0.32499924      -1.11323607
H       12.00000000      12.00000000      12.00000000       1.27466285       1.31776087       1.27479459
O       15.55392100      12.74629300       8.98499400       0.12831662      -0.73858579      -0.76972736
H       14.66717500      12.98785500       9.30349600      -0.37961667       0.31425547      -0.20096176
H       15.43395400      12.27896700       8.12994000      -0.00319023       0.54246038       0.93241351
O       11.88754700      15.87122300      14.16641700      -0.72965651      -1.91761584      -0.47274723
H       11.08494200      16.06190300      13.64237300       0.61472495       0.01798651       0.38296332
H       11.89616300      14.86359200      14.14771400       0.13603528       1.83463270       0.04579320
O       15.73267000      11.47764600      11.61109300      -1.12482573       1.72405654      -1.00882912
H       15.23715300      11.69749800      10.75468300       1.36188938      -0.67602607       1.49727633
H       15.84760300      10.54674300      11.69440200      -0.05636378      -1.00799469      -0.29176603
O       14.22759700      12.43452000      14.31159600       0.73842258       0.09272088       0.10643962
H       14.44949100      11.71741300      14.92847900      -0.01404748       0.37974050      -0.48623071
H       15.03037700      12.65150400      13.79513300      -0.31620457      -0.43518989       0.37122326
O        8.70808300      12.78008800      14.23670700       0.22926379      -0.67767733       0.51949750
H        8.41822600      13.37480600      13.56172300      -0.27203580       0.65008055      -0.61289879
H        9.09448300      12.04158900      13.75473200       0.06753887       0.05342115       0.08997869
O        8.22393200      11.66318900       9.69264300       0.11849120      -0.00641130       0.01007451
H        7.48837700      11.55377400      10.30091900      -0.11757069       0.13488276       0.04486174
H        8.49294400      10.76139100       9.49968800       0.08113543      -0.08114484      -0.08981517
O       13.04245500      13.42915300       9.97568500       0.30777346       0.12698767       1.55997361
H       12.77095700      13.54912700      10.95153400       0.42543291      -0.39741920      -1.78746391
H       12.27790600      13.52533500       9.39886200      -0.35338797       0.20311459       0.11040580
27
Properties=species:S:1:pos:R:3:REF_forces:R:3 REF_energy=-18719.621408257564 charge=0 spin=1 external_field="0.0 0.0 0.0" config_type=ORCA_DFT source_file=C_DFTprod_cutcluster_0460.out orca_step=0 pbc="F F F"
O       11.08518400      11.97864600      12.32203400       0.74118153      -0.12349950       0.44807400
H       11.18949900      12.42313100      13.18924000      -0.25498501      -0.24465334      -0.22899985
H       12.00000000      12.00000000      12.00000000      -0.16493083      -0.11502361      -0.17522661
O       14.33584200      11.21687400      16.54516200       0.64187230       0.25769110       1.44116226
H       13.70961600      11.37476100      17.26155100       0.21082770      -0.04075441       0.00684515
H       13.79501600      11.11284800      15.79140800      -0.82988783      -0.20676304      -1.49146348
O       14.05960700      12.47606800      12.62455300      -0.38300523      -0.40253292      -0.00906494
H       14.93454900      12.13793800      12.50699400       0.77203955      -1.22367494      -0.30499251
H       14.31960400      13.36588100      12.79014300      -0.46829861       1.58370778       0.31121581
O        7.50149100      12.03993600      13.53585500       0.73266305      -0.19166311       0.15402318
H        6.93389200      12.42453000      12.87247100      -0.22908207       0.21238136      -0.28355969
H        8.39356900      12.14663600      13.15976400      -0.47874587       0.04185098       0.17029790
O        9.50949200      14.00991200      11.90645400      -0.64019013       1.44801476       0.01656516
H       10.05172900      14.70498100      12.34966300      -0.25035348      -0.79398186      -0.48804216
H       10.01853100      13.19446000      11.89527500       0.64020993      -0.31803186       0.00072238
O       11.07214800      13.28935700      14.76346800      -0.31592479       0.88687423       0.18389992
H       11.07182800      12.66792900      15.48204800       0.12596622      -0.64914621       0.47032335
H       10.43288200      13.95402900      15.07159700       0.17005051      -0.22176733      -0.47361117
O       11.53187300      14.89417700       9.87153900       1.56308866      -0.19777318      -1.19966947
H       11.70728900      14.17275200       9.24331500       0.15900192       0.37113234       0.28394576
H       10.66361100      14.71011600      10.16742400      -1.60751707      -0.19766262       1.04613819
O       10.71049700      16.37156900      12.91368200      -1.92922529       0.33101228      -0.15282273
H       11.23340100      16.40166000      13.70982200       0.12386558       0.13601656       0.48948465
H        9.77723500      16.65266400      13.14734500       1.75866910      -0.33759050      -0.21468847
O        9.71235600      12.96122300       7.82234400       0.39863986       1.66637024       0.45345269
H        9.71839100      13.44229000       8.68494100      -0.25086132      -0.80367729      -0.80034514
H        9.90785200      13.70710400       7.21074600      -0.23506832      -0.86685588       0.34633575
27
Properties=species:S:1:pos:R:3:REF_forces:R:3 REF_energy=-18719.380267008415 charge=0 spin=1 external_field="0.0 0.0 0.0" config_type=ORCA_DFT source_file=C_DFTprod_cutcluster_0465.out orca_step=0 pbc="F F F"
O        7.85710600      13.88371300      14.26950800      -0.30999906      -0.06708451      -0.13528657
H        7.10754100      13.97486300      13.66471800       0.19970562      -0.02958944       0.22959608
H        8.62185600      14.16154300      13.76151500       0.23507752       0.13278021      -0.07881913
O       16.32918000      10.93301000      12.02658200      -1.78214543       1.51585461      -2.77485455
H       16.87703400      11.46760800      11.42083200      -0.20371531      -0.49104757       0.61171866
H       16.84162800      10.59586800      12.69961200       2.05961438      -1.09150830       2.12569919
O       14.57496400      12.77371900      13.19860300       0.04466608       0.94391020       1.47062931
H       15.06659000      13.09971600      13.99774000      -0.70478900      -0.57784607      -1.32014942
H       15.11818900      12.09143200      12.80031200       0.65044364      -0.38407528      -0.16980142
O       12.05450800      16.61204000      12.88114400       0.22455209       0.87844430       0.44935857
H       11.28314400      16.73995300      13.43365000      -0.19621411      -0.06272284       0.08988922
H       12.00142500      15.71855600      12.56121800       0.03973162      -0.74553734      -0.60307631
O       12.00000000      12.00000000      12.00000000       0.30991226       0.06246789       0.74794456
H       11.59912000      12.15728700      12.87524600       0.12482758       0.03475453      -0.51051360
H       12.94757500      12.12290400      12.21598800      -0.47870252      -0.09386065      -0.04037995
O       14.98387400      16.18597000      12.96922500       1.73926266       0.19074054      -0.52425476
H       14.50034700      16.99638900      12.91719600      -0.64890540       0.68945859      -0.14918406
H       14.43667700      15.61405900      13.46464500      -1.02822712      -0.92801065       0.59106149
O       12.43857700      14.61314600      10.52736500       0.51254303      -0.83012767       0.87338304
H       11.46902800      14.63376200      10.55300300       0.24456453      -0.20156041      -0.18578165
H       12.65180600      13.74815900      10.96767400      -0.45671316       1.23254437      -0.66963975
O        9.91140100      13.74980300      10.44376400      -2.51010912       0.36219061       0.70513281
H        8.98239700      13.94495400      10.77195300       1.72422834      -0.27112897      -0.72752938
H       10.03915400      12.82558000      10.67786700       0.37258429      -0.17967256       0.03257089
O       11.17652500      14.31827100      14.62502500       0.03480986      -0.55259115       3.69050252
H       10.64151100      13.80114700      15.38085800       1.90582100       1.84992141      -2.42716980
H       11.92711100      14.81415000      15.13094900      -2.10282429      -1.38670403      -1.30104612
27
Properties=species:S:1:pos:R:3:REF_forces:R:3 REF_energy=-18719.321653748684 charge=0 spin=1 external_field="0.0 0.0 0.0" config_type=ORCA_DFT source_file=C_DFTprod_cutcluster_0470.out orca_step=0 pbc="F F F"
O       10.86925900      12.40952600      15.78498100      -1.02461353       0.77725251      -0.00248456
H       11.70924100      12.39704800      15.32872200       0.05021859      -0.40618995      -0.31067485
H       10.23838300      12.89605900      15.20575300       0.81309488      -0.51800981       0.44099827
O       16.89361400      12.03540000      11.19464600      -0.89945706      -1.09039100      -2.20185229
H       17.10408000      12.46266900      11.98521000       0.38178458       1.14037335       1.93604448
H       16.01933900      12.35018100      10.91460400       0.51003769      -0.05583902       0.27790809
O       12.36749900       9.44996600      15.29909900       2.92736166       2.27523410      -0.00713029
H       13.00918800       9.28567200      14.57376800      -1.05756032      -0.10582394       0.51068566
H       11.70976300       8.82072000      15.25557100      -2.01567098      -2.12315436      -0.32464962
O       13.06451000      14.39026300      14.68849200      -1.35931555       0.44089872       1.62754041
H       12.97883600      13.61409900      14.12332200      -0.36047280      -0.07322317       0.34282470
H       12.36417100      14.36040700      15.43660000       1.67510099      -0.36539168      -2.05308820
O       13.29472600       8.86677000      12.70109200       0.83548672      -0.77110897      -1.26179895
H       14.27367300       8.78918500      12.52715500      -1.65630298      -0.08484908      -0.01752140
H       12.81406100       8.31586800      12.02254500       1.04089669       0.84471755       1.03863325
O       11.38293600      11.93610300      12.74302200       0.19889428      -0.17433377      -0.05776405
H       12.00000000      12.00000000      12.00000000      -0.40795034       0.09786818       0.16660580
H       10.80193000      12.71309600      12.75792000       0.12663301      -0.05585444      -0.08946365
O        8.94256600       9.68866800      12.74196700       0.32051991      -0.45994756       0.29246619
H        9.74071800      10.25680000      12.74297700      -0.15899261      -0.61563666       0.39898222
H        9.13910800       8.80650600      13.13979000       0.11586055       1.33978705      -0.41404946
O        9.51718200      14.00763900      13.55777000      -0.26533946       0.63082808      -1.27952105
H        8.66430900      13.85813400      13.06933700       1.27925103       0.45871194       0.61421674
H        9.99315200      14.77405000      13.13653800      -0.99898611      -1.00177180       0.59397064
O        8.71037400       9.03090400      10.11749400       0.68816008      -0.62585649      -0.29082413
H        8.05192900       9.45664700       9.57767400      -0.31158065       0.34968147       0.17020643
H        8.74170800       9.38847900      11.02023000      -0.44705831       0.17202867      -0.10026023
27
Properties=species:S:1:pos:R:3:REF_forces:R:3 REF_energy=-18720.04888395442 charge=0 spin=1 external_field="0.0 0.0 0.0" config_type=ORCA_DFT source_file=C_DFTprod_cutcluster_0480.out orca_step=0 pbc="F F F"
O        9.81029900      12.20599100      12.22656400       0.01371972       0.58836461       1.16458630
H        9.56899700      12.84052800      11.55082900      -0.09845850       0.04268705      -0.35197006
H        9.90528300      12.77006100      13.04551000       0.41197350      -0.47152981      -0.86664458
O       14.74245800      10.56749700      11.26776900       0.03290123      -1.01715625      -0.76562444
H       14.77654100      10.98463500      10.38328100       0.09949918      -0.69118714       0.44829275
H       14.65905200       9.57843900      11.12784000       0.00718243       1.84782612       0.17584120
O       15.13254200      11.98802600      14.12473200      -1.26535849       1.16134229      -1.02664831
H       14.32413600      12.56564100      13.98097500       1.39790416      -1.06779465       0.39918514
H       15.46073200      11.86593900      13.21159000      -0.18297149      -0.14103356       0.63653114
O        9.05064300       9.76335600      13.21889600      -0.82317890       0.87213533      -0.12181641
H        9.24812200      10.70822500      13.00570700      -0.09060321      -0.79182275      -0.11499918
H        8.11367900       9.67786300      12.95884100       0.72973323      -0.16536668       0.18983238
O       10.86489400      13.88055700      14.16541700      -3.17114236      -1.18282227       2.96229262
H       11.03583500      14.60856400      13.62119500       0.91563053       1.95428733      -1.95675353
H       10.02235100      14.17973300      14.65891200       2.08655656      -0.78080095      -0.82279416
O       12.63925000      12.45807500      11.45557000       0.04526191       0.60469677       0.12741416
H       12.00000000      12.00000000      12.00000000      -0.82231959      -0.04308388       0.19056658
H       13.40765200      11.89565300      11.53777000       0.64820781      -0.50194329      -0.05253546
O       11.96896600      13.20750200       8.88514900      -0.95453066       0.46605943      -3.46189723
H       12.13818100      13.02579700       9.77614700       0.03965613      -1.15306426       2.19211902
H       11.32998300      12.58693900       8.46643400       0.87031458       0.59267527       1.06352312
O       11.93745900      15.25512900      12.00871600       0.02870426      -0.09979933       0.01067090
H       12.39621300      14.46138900      11.67867900      -0.15074374       0.03757045       0.16165242
H       12.62890300      15.82361300      12.35598100       0.11446676       0.09884211      -0.07985215
O       11.44125800       8.47063500      12.75528100       2.54111138      -2.41584532       0.17049809
H       11.59507700       7.62357300      13.28854300      -0.96322675       2.28878685      -1.00627977
H       10.64451900       8.93111400      12.95735900      -1.46028972      -0.03202350       0.73480951
27
Properties=species:S:1:pos:R:3:REF_forces:R:3 REF_energy=-18720.042364837227 charge=0 spin=1 external_field="0.0 0.0 0.0" config_type=ORCA_DFT source_file=C_DFTprod_cutcluster_0493.out orca_step=0 pbc="F F F"
O       11.91628600      13.71860200       8.83069900      -0.14982693       0.76847466       1.02188235
H       11.22628500      13.08081300       8.72546700      -0.50293301      -1.21343711      -0.72631438
H       11.47886700      14.20617900       9.56147700       0.85796331       0.35353108      -0.10744600
O        9.20264100      10.61771100       9.91511000       0.66303099      -0.00524500      -0.39190557
H        9.74283500      11.13249100      10.52688000      -0.06641093       0.14677771       0.16253718
H        8.36706100      10.46150200      10.33979500      -0.44215259       0.02880047       0.33675360
O       12.12520900      14.95527200      11.58196100       1.25561478      -0.71354314      -0.66034671
H       12.06224300      13.97012200      11.71689000      -0.57205594       1.03225938       0.18591006
H       13.00038400      15.05839900      11.14827600      -0.80551002       0.22601243       0.43855387
O       11.17587200      12.50972300      11.92609000      -0.36130564      -0.55779136       0.22442452
H       10.67387500      12.28660600      12.75240500       0.43610783       0.75808324      -0.87216706
H       12.00000000      12.00000000      12.00000000      -0.34098878      -0.26039173      -0.06035886
O        9.32623800      12.32481800      13.76021000       0.00164885      -1.29975281      -0.13743334
H        9.20377500      11.45487700      14.17728200      -0.18304029       0.63216988      -0.00475675
H        9.03361500      12.99872400      14.35886200      -0.23766272       0.44876480       0.57619388
O       15.61679700      11.81042800      13.89264600      -0.56242115      -0.32567241      -0.47575784
H       14.66080500      11.71555600      13.67528400       1.09419268       0.47903502       0.48052430
H       15.81830600      12.74580100      14.00733900      -0.41696257      -0.13144540       0.00413799
O       13.01995800      10.60934700      12.14537500       0.21393416      -1.31537391      -0.89566026
H       12.63926200       9.77829500      11.78499700       0.07974771       0.61466787       0.64521412
H       13.56957800      10.87017000      11.38064000       0.26589744       0.45140152       0.10152279
O       14.34725600      12.24135900      10.04106100      -1.33310855       0.47600461      -0.48394973
H       14.69162200      12.76679600      10.76475700       0.22569906       0.22699094       0.10771632
H       13.61862700      12.79815600       9.62867700       0.88669425      -0.75827520       0.47543362
O       12.68897000      12.18813800      14.59793400      -1.37503523      -0.62240206       0.81860480
H       11.94795500      12.15037400      15.25411700       1.08739695       0.34173615      -0.70414391
H       12.54940700      11.35898600      14.11164200       0.28148645       0.21862025      -0.05916896
27
Properties=species:S:1:pos:R:3:REF_forces:R:3 REF_energy=-18720.471800568805 charge=0 spin=1 external_field="0.0 0.0 0.0" config_type=ORCA_DFT source_file=C_DFTprod_cutcluster_0498.out orca_step=0 pbc="F F F"
O       12.63290900      10.26086900      12.56940300       0.27258000      -1.86233403      -0.04801073
H       11.87883500       9.95895500      13.10397700      -0.40656549       0.24855422       0.08928604
H       12.88804900       9.39485700      12.15060300      -0.20687128       1.41399402       0.10690586
O       10.22150800      12.58187000      14.12270400      -0.50486664       0.52638626       0.36806224
H       10.90919400      12.74220300      14.80683400       0.01683615      -0.00384632      -0.35025910
H        9.47945600      13.17995000      14.33504600       0.51014059      -0.49535947      -0.10072123
O       10.11615300       9.75631200      14.48617400       1.22414432       0.13996506       1.05700501
H       10.09467800      10.71953900      14.35046400      -0.32445967       0.13173917      -0.12794875
H       10.63482900       9.70933000      15.32756900      -0.71990076      -0.21394866      -0.94149866
O       11.66538400      12.72524700      11.44578100      -0.01869372       0.55983508      -0.20691155
H       12.00000000      12.00000000      12.00000000      -0.31381257       0.22217017      -0.19839045
H       11.05958000      13.27884600      11.96264400       0.44670154      -0.61607071       0.20507084
O       14.56896300      10.93998900      14.42796500       0.56589126       0.02847903       0.89120736
H       14.88871400      10.22379500      14.99876500      -0.10457099       0.35983810      -0.24961994
H       13.92867600      10.53955000      13.83437400      -0.43140086      -0.20274991      -0.63428662
O       12.57594500      12.72168100      15.51477200       1.22069842      -0.69140286       0.62051034
H       13.34053900      12.30344500      15.04700400      -0.56575767       0.22342456      -0.27985149
H       12.86424700      12.48950400      16.41783400      -0.64282906       0.41096783      -0.24118970
O        9.18573700      10.55176600      11.34526500      -0.36771586       0.48197364      -2.60213426
H        9.34917000      11.01177000      12.14626300       0.27731936       0.81093381       0.97918615
H        9.25445600      11.23191600      10.59375000       0.19097050      -1.35507992       1.64740948
O       10.93163100       9.91900800       8.03086100      -0.47005364       0.69665274      -0.71496579
H       10.55451500       9.92865200       7.13979800       0.26537381      -0.66113187      -0.03108896
H       10.65164100      10.81978900       8.26536000       0.21458835      -0.14786004       0.69772248
O       10.04064600      12.41241200       9.15759400      -2.41970450       1.61866676      -0.68721458
H        9.39125700      13.18784100       9.10804400       1.38841581      -1.72603773      -0.06147488
H       10.80909300      12.78090400       9.57887900       0.90354269       0.10224106       0.81320081
