19
Lattice="24.0 0.0 0.0 0.0 24.0 0.0 0.0 0.0 24.0" Properties=species:S:1:pos:R:3 selected_molecules=17,42,47,77,80 interaction_cutoff_A=2.2 source_xyz=C:\Users\shaoq\Documents\Mainz\mlip\outputsfull\r09_hot_w7n1\r09_hot_w7n1.xyz source_frame=2518 source_time_ps=125.9 center_molecule=42 pbc="F F F"
H       11.18405794      10.28687485       9.63479527
O       10.71388407      10.86377998       9.08653126
H       10.62726780      11.66453940       9.60118552
H       11.56938245      11.48280231      12.29066994
O       10.85056081      11.31882684      11.60336208
H       11.58073696      10.68295933      11.11594098
O       12.78297090      14.33562027      14.55184407
O       11.15777742      13.78869459      12.95790603
H       10.95379411      12.90579380      12.65934414
H       11.88688593      13.56673859      13.68724120
H       12.26432230      15.13393698      14.64890437
H       12.58490794      13.54732319      15.11123561
H       13.27901174       8.95558563      11.83219173
O       12.94882658       9.64137135      11.26491428
H       13.33155211      10.63412853      11.45899597
H       13.70032694      12.81272670      11.82951052
H       13.23485319      12.90355692      13.09811550
H       14.43670276      11.93263126      12.31908387
N       13.43237416      12.02238778      12.37502883
