19
Lattice="24.0 0.0 0.0 0.0 24.0 0.0 0.0 0.0 24.0" Properties=species:S:1:pos:R:3 selected_molecules=16,25,33,45,55 interaction_cutoff_A=2.2 source_xyz=C:\Users\shaoq\Documents\Mainz\mlip\outputsfull\r09_hot_w7n1\r09_hot_w7n1.xyz source_frame=1586 source_time_ps=79.3 center_molecule=33 pbc="F F F"
H       11.65545886       9.98083115      11.58558613
H       10.14616723      10.21765649      10.74934363
O       10.95073382       9.67602822      10.92952165
H       13.18458564      10.71733466      10.19634904
O       13.15336638      11.23440797      11.02315900
H       13.62385867      11.95881029      10.75658932
H       11.24151383      11.41543943      11.78864963
O       11.08384789      11.59003811      12.72425391
H       11.68078221      11.98398615      13.33521548
O       12.82157088      11.65840606      15.14051555
H       13.04840593      10.71596027      14.79262340
H       13.19239078      11.62703165      16.13507161
H       12.06411685      14.80344063      12.14045697
O       12.44678986      13.94695206       9.96504670
H       11.93268866      13.29978290      12.45188526
H       11.52169695      13.57042722      10.73738777
H       10.70482030      13.73130200      12.77082336
H       12.79206594      13.39130496       9.14225963
N       11.42205002      14.06183858      12.20653490
