19
Lattice="24.0 0.0 0.0 0.0 24.0 0.0 0.0 0.0 24.0" Properties=species:S:1:pos:R:3 selected_molecules=24,52,54,65 interaction_cutoff_A=2.2 source_xyz=C:\Users\shaoq\Documents\Mainz\mlip\outputsfull\r09_hot_w7n1\r09_hot_w7n1.xyz source_frame=4380 source_time_ps=218.99999999999997 center_molecule=52 pbc="F F F"
H       12.55518218      12.70386342      11.01118185
O       12.11354797      13.57619698      10.77006704
H       12.92017083      14.77158810      13.82600700
O       10.55912177      11.81718660      10.08651105
H       10.42494833      10.94457932      10.52687688
H       13.31573496      15.02501906      12.25327780
H       11.11916028      12.54276701      10.24623647
H       12.18726311      14.20175491      11.52089427
O       12.99209484      14.37555697      12.80758730
H       12.58604816      12.19291393      12.96469786
H       13.75328434      11.60692725      13.33191584
N       13.20314000      11.43590283      12.66600192
H       13.58667911      11.44939877      11.83079955
O       12.17057048       9.80350710      11.19159930
H       12.08558858      10.67762389      10.84727116
H       12.18301609       9.84167667      12.27862358
O       10.91462190      10.77412379      14.37543446
H       11.28576628      11.34976064      14.87253299
H       11.11923766      11.02993721      13.43745866
