19
Lattice="24.0 0.0 0.0 0.0 24.0 0.0 0.0 0.0 24.0" Properties=species:S:1:pos:R:3 selected_molecules=8,26,45,48,70,76 interaction_cutoff_A=2.2 source_xyz=C:\Users\shaoq\Documents\Mainz\mlip\outputsfull\r09_hot_w7n1\r09_hot_w7n1.xyz source_frame=2982 source_time_ps=149.1 center_molecule=45 pbc="F F F"
H       13.80229683      13.43692520      10.42638790
O       13.27369867      12.60889409      10.11878105
H       12.46110344      12.34806481      10.51190492
H       13.36901040      13.69257974      13.30717017
H       14.77446653      12.81812575      13.05187972
N       14.01989865      13.04947231      13.59377844
H       13.36293382      12.30999937      13.95545204
H       12.42282377      10.92656948      11.89058415
O       11.82748950      11.72282709      11.93402304
H       12.29359273      12.55811251      12.15643945
O        9.71563743      11.99639232      10.61545540
H       10.70140096      11.67191291      10.44644815
H        9.38048298      11.55036806      11.39697141
H       12.57878639       9.90331997      13.36916328
H       13.77727404       9.17610174      12.67009523
O       12.77125358       9.24377365      12.72534634
O       10.47781302      13.44820418      13.00675454
H        9.73503499      13.52839892      12.42483440
H        9.97082338      13.04936305      13.63530773
