19
Lattice="24.0 0.0 0.0 0.0 24.0 0.0 0.0 0.0 24.0" Properties=species:S:1:pos:R:3 selected_molecules=18,22,29,53,68 interaction_cutoff_A=2.2 source_xyz=C:\Users\shaoq\Documents\Mainz\mlip\outputsfull\r09_hot_w7n1\r09_hot_w7n1.xyz source_frame=2206 source_time_ps=110.3 center_molecule=29 pbc="F F F"
O       10.77896372      13.59770264      12.31211396
H       10.61341854      14.09371011      13.14620353
H       11.76497593      13.92767138      12.21538091
O       13.04309106      10.06412973       9.39486375
H       12.15054493      10.24883152       9.47822414
H       13.34474892       9.30594862       9.68849602
H       11.49174527      12.13250401      11.94144612
O       12.18709914      11.44799568      11.85861392
H       12.03165860      11.19236796      10.74658131
O       12.11700383      11.79790845      14.46072049
H       11.60397366      12.48371447      14.02388812
H       13.28999498      12.11925021      13.93478088
H       13.61711461      13.29806914      13.53277729
H       11.87307996      10.96347664      13.74204304
O       14.21422667      12.58631314      13.53866635
H       10.00197784      11.85597048      11.21196054
H       10.40547562      12.73972986       9.81601848
H        8.94537784      11.74568010      10.14137261
N        9.67694942      12.57020917      10.38379258
