18
Lattice="24.0 0.0 0.0 0.0 24.0 0.0 0.0 0.0 24.0" Properties=species:S:1:pos:R:3 selected_molecules=16,30,37,38,69 interaction_cutoff_A=2.2 source_xyz=C:\Users\shaoq\Documents\Mainz\mlip\outputsfull\r09_hot_w7n1\r09_hot_w7n1.xyz source_frame=2828 source_time_ps=141.4 center_molecule=37 pbc="F F F"
H       12.33687314       9.89809494      11.63631461
O       12.25136919       9.03548713      11.89588365
H       12.06011407       8.49765711      12.69185837
H        8.93352687      13.21505774      11.16189065
H       10.00066765      13.13443702      12.54143788
H        8.74457223      12.03202909      12.16209454
N        9.48462363      12.54939744      11.81253413
O       11.92908795      11.43984044      12.43250625
H       11.23763620      11.16024432      11.84799907
H       11.98866872      12.38381018      12.18080850
H       14.00176743      11.54435750      11.90493285
H       14.72064624      12.98822626      12.82877216
H       14.69619269      13.50977470      11.36351466
N       14.35611348      12.74722057      11.92948133
H       13.44931531      12.89543121      11.83155184
O       11.93573611      14.09323471      11.93872288
H       11.95931333      14.45260944      11.08845829
H       12.23957449      14.99049646      12.10565623
