19
Lattice="24.0 0.0 0.0 0.0 24.0 0.0 0.0 0.0 24.0" Properties=species:S:1:pos:R:3 selected_molecules=10,11,15,20,23,42 interaction_cutoff_A=2.2 source_xyz=C:\Users\shaoq\Documents\Mainz\mlip\outputsfull\r09_hot_w7n1\r09_hot_w7n1.xyz source_frame=656 source_time_ps=32.8 center_molecule=42 pbc="F F F"
H       11.99864281      14.22059282      11.45033914
H       13.67810004      14.55269794      11.24337027
O       12.91815999      14.06647654      11.08116116
O       12.06384452      13.26191017      14.23725760
H       11.36192870      13.38074053      14.87148707
H       11.95084077      14.07306703      13.67945740
H       13.86201001      10.67201869      13.45179388
H       12.75226732      11.47107244      14.60084374
H       13.27393732      12.20361896      13.06896418
N       13.53027701      11.66116940      13.94856683
H       12.28842861       9.89945390      11.83167712
H       13.23793233      10.51195353      10.58535158
O       12.32776919      10.71702766      11.06979203
H       11.11410922      10.31119972       8.84449256
H       10.67988850      10.62521786      10.46065602
O       10.49185503      10.03067968       9.48617324
O       10.67704032      12.20154990      12.24197447
H       11.05643654      12.28744878      13.08551287
H       11.62760462      12.09247986      11.64629685
