19
Lattice="24.0 0.0 0.0 0.0 24.0 0.0 0.0 0.0 24.0" Properties=species:S:1:pos:R:3 selected_molecules=10,32,48,61,77 interaction_cutoff_A=2.2 source_xyz=C:\Users\shaoq\Documents\Mainz\mlip\outputsfull\r09_hot_w7n1\r09_hot_w7n1.xyz source_frame=3604 source_time_ps=180.2 center_molecule=61 pbc="F F F"
H       12.57193401       8.77326980      12.89792869
H       12.27664012      10.40764008      12.13371170
O       13.09670521      11.13146246      14.87098672
H       12.55830336      10.61999579      14.25301971
O       12.31780301       9.81355393      12.98725788
H       13.76174755      10.50610652      14.97081682
O       13.82039813      12.67609456      10.95053392
H       14.30528549      11.83747595      11.35058403
H       14.30839998      12.58802995      10.13321995
H       11.84275581      12.64614233       9.14352390
H       12.22280928      13.12923576       7.88504663
O       11.97579125      13.40832430       8.70475437
H       11.60792307      11.67853879      11.69184592
H       11.35946302      13.08275886      12.37135523
H       11.81477199      13.39344832      10.99466287
N       11.37113403      12.55113498      11.52619675
H        9.35439198      13.59420114      12.83519094
O        9.21615360      12.59197390      13.01897093
H        9.97919864      12.09367998      13.47107145
