19
Lattice="24.0 0.0 0.0 0.0 24.0 0.0 0.0 0.0 24.0" Properties=species:S:1:pos:R:3 selected_molecules=24,34,47,62,65 interaction_cutoff_A=2.2 source_xyz=C:\Users\shaoq\Documents\Mainz\mlip\outputsfull\r09_hot_w7n1\r09_hot_w7n1.xyz source_frame=4534 source_time_ps=226.7 center_molecule=24 pbc="F F F"
H       11.48916110      11.59289217      11.52505411
O       11.63209762      11.84275011      10.57645652
H       11.29366206      11.32531857       9.81901582
O       14.28695377      11.13311483      10.71320431
H       14.40535285      10.47846373       9.87910697
H       13.52778755      11.01598618      11.22441766
H       12.06829004      13.68339878      11.03840179
H       12.69587209      14.46129937      12.35959962
H       11.43106800      14.94870513      11.47823466
O       10.21147603      12.83886171      12.88148638
H        9.73023003      12.99104389      12.00832372
H       11.30775207      13.35610633      12.24531341
N       11.86945675      14.27204015      11.96666259
H       13.70375100      12.55969612      13.51962103
O       13.09774727      12.01335069      12.96526379
H       12.64283878      11.24402139      13.52643914
H       11.70077099       9.59048654      12.51142233
O       10.85557071      10.04316711      13.01399636
H       10.48667449      10.96834947      12.94103165
