19
Lattice="24.0 0.0 0.0 0.0 24.0 0.0 0.0 0.0 24.0" Properties=species:S:1:pos:R:3 selected_molecules=1,45,47,51,55,70 interaction_cutoff_A=2.2 source_xyz=C:\Users\shaoq\Documents\Mainz\mlip\outputsfull\r09_hot_w7n1\r09_hot_w7n1.xyz source_frame=3758 source_time_ps=187.9 center_molecule=70 pbc="F F F"
H       13.22934843       9.93050643       9.59313768
H       12.65915177      10.83004116      10.81191533
H       11.62576462      10.34015219       9.25260864
N       12.45215246      10.47065359       9.88087889
H       13.21842841      11.18676124      12.79669730
O       13.42348458      11.71562983      13.60532368
H       14.11632605      11.40328673      14.04549421
O       11.34703562      12.99210446      14.73495384
H       10.59156893      12.93745003      14.10973396
H       11.53347253      12.33182919      15.28045892
H        9.42038115      11.32964767      11.68590793
O        9.46557721      11.48572149      12.73017343
H       10.44794154      11.36016153      12.75159434
H       13.68091177      12.64712653       8.89536023
H       12.16835154      12.28145226       9.26104915
O       12.93683096      12.96297639       9.32427886
O       12.35620692      12.41151525      11.70033069
H       11.91244390      12.56634060      12.56729259
H       12.58645003      13.22028852      11.14285342
