19
Lattice="24.0 0.0 0.0 0.0 24.0 0.0 0.0 0.0 24.0" Properties=species:S:1:pos:R:3 selected_molecules=8,14,61,63,65,68 interaction_cutoff_A=2.2 source_xyz=C:\Users\shaoq\Documents\Mainz\mlip\outputsfull\r09_hot_w7n1\r09_hot_w7n1.xyz source_frame=3138 source_time_ps=156.9 center_molecule=65 pbc="F F F"
O        9.73574355      14.05088089      11.81485744
H        9.58452099      14.50893199      11.03402041
H       10.07075865      13.12097836      11.40548923
O       10.02216784      11.32226724      12.04543188
H        9.54653094      10.50103285      11.78502812
H        9.17967242      11.33611165      12.76851066
H       13.75714371      13.21389103      13.09527837
H       13.15449462      13.72673588      14.55734413
O       14.03505444      13.48762185      14.11421747
H       14.36219373      10.48168406       9.93241684
H       13.00122936      10.75386013       8.90551356
H       13.63655679      11.66401014      10.39696484
N       13.35383456      10.73181061       9.94728491
H       11.74372697      12.19919602      12.38926361
H       12.62224255      11.82967716      11.38649422
O       12.43369027      12.67588234      11.78170181
H       12.39961107       8.99068099      12.75929575
O       12.61129370       9.83775708      12.30368054
H       12.57274709       9.48109924      11.41395737
