19
Lattice="24.0 0.0 0.0 0.0 24.0 0.0 0.0 0.0 24.0" Properties=species:S:1:pos:R:3 selected_molecules=7,11,30,57,66 interaction_cutoff_A=2.2 source_xyz=C:\Users\shaoq\Documents\Mainz\mlip\outputsfull\r09_hot_w7n1\r09_hot_w7n1.xyz source_frame=1120 source_time_ps=55.99999999999999 center_molecule=30 pbc="F F F"
H       16.06395757      12.29329353      11.70699348
O       15.19801786      12.61256216      11.21176499
H       15.66014052      12.51894258      10.30566172
H       12.66844437       9.61146829      10.82518436
H       11.39773624       9.90830735       9.67728753
H       11.09445692      10.15934497      11.26980347
N       11.97624152      10.07079699      10.54140364
O       12.90599082      12.14077676      12.44442591
H       13.65709072      12.57310004      11.95269426
H       12.08522555      11.94770782      12.02531285
H       11.12998433      14.71109098      13.77707350
H       12.04757460      13.59895101      12.86864926
O       11.14889224      13.81591847      13.46852367
H        9.84715756      12.53943187      13.63585003
O       10.24272777      11.43225641      13.32061655
H       10.72618198      12.57922347      10.82182502
O       10.48204263      11.74423957      11.09518076
H        9.73241120      11.25202073      10.68574345
H       10.57418376      11.40636146      12.26529172
