19
Lattice="24.0 0.0 0.0 0.0 24.0 0.0 0.0 0.0 24.0" Properties=species:S:1:pos:R:3 selected_molecules=9,16,41 interaction_cutoff_A=2.2 source_xyz=C:\Users\shaoq\Documents\Mainz\mlip\outputsfull\r09_hot_w7n1\r09_hot_w7n1.xyz source_frame=3914 source_time_ps=195.7 center_molecule=41 pbc="F F F"
H       12.19424476      14.91752662      10.96913698
O       12.72087409      15.80502088       9.97343739
O       12.19675662      14.56761431      11.98403702
H       12.66171439      16.61946564      10.61237481
H       13.74353597      15.50874383      10.36566900
H       11.11497925      14.39996578      12.03829460
H       11.16105671       9.08490858      12.57857698
H       10.45550577       9.14694360      15.15781397
O       11.94779633       9.68440666      12.99862418
O       12.18784497      10.52350459      10.65795162
H       12.18193312      10.09586010      12.08732491
O       10.05381136       9.35738759      14.26041539
H       11.95587972       9.90706089      10.10725422
H       13.14479432      10.61727616      10.14756289
H       10.80979857      10.02629406      13.93371907
H       13.58380178      11.85735173      11.98398162
H       12.54758880      12.91346511      11.63675335
O       12.77260193      12.02510677      12.21710550
H       12.35480443      11.49175531      12.92811897
