19
Lattice="24.0 0.0 0.0 0.0 24.0 0.0 0.0 0.0 24.0" Properties=species:S:1:pos:R:3 selected_molecules=22,48,66,67,71 interaction_cutoff_A=2.2 source_xyz=C:\Users\shaoq\Documents\Mainz\mlip\outputsfull\r09_hot_w7n1\r09_hot_w7n1.xyz source_frame=1276 source_time_ps=63.8 center_molecule=67 pbc="F F F"
H       11.65555507      14.23559852      10.51049316
O       11.58100794      13.76218535      11.83546783
H       12.79454358      14.17812893       9.40678567
H       10.55579888      13.83461790      11.90531055
O       11.86067318      14.12540453       9.51905797
H       11.59432953      13.04180158      11.17559336
H       13.27611005      11.85829187      14.72425696
O       13.23788750      12.80174734      14.58525837
H       12.39468744      13.14096273      14.36491376
H       13.53514243      10.30049849      12.36499224
O       13.63290824      10.27626789      11.41047526
H       13.40445568       9.35406748      11.19540145
H       11.48747225      11.09063582      13.55133108
H       12.53683647      11.92396702      12.63717774
O       11.57961974      11.69110659      12.80664441
H       10.41011889      10.31305854      11.67449320
N        9.99738322       9.33926648      11.75885123
H        9.49585297       8.84886851      11.11458312
H       10.65572348       8.68522051      12.23524939
