19
Lattice="24.0 0.0 0.0 0.0 24.0 0.0 0.0 0.0 24.0" Properties=species:S:1:pos:R:3 selected_molecules=17,23,29,60,64,71 interaction_cutoff_A=2.2 source_xyz=C:\Users\shaoq\Documents\Mainz\mlip\outputsfull\r09_hot_w7n1\r09_hot_w7n1.xyz source_frame=966 source_time_ps=48.3 center_molecule=29 pbc="F F F"
H       11.59002955       9.91664042      14.67078633
O       11.63265437       9.73875122      13.74173853
H       12.41572980       9.11455224      13.69059873
O       13.98494583      11.13221618      12.37441288
H       13.90916925      10.82554294      11.53410936
H       14.50596259      10.75837780      12.99627986
H       11.85593614      10.97008535      12.25315461
O       11.95679906      11.93183041      11.89375116
H       12.76776501      12.49501533      11.95705355
O       10.35326605      11.63732538      14.10276542
H       10.80011074      12.36080537      13.64120438
H        9.81139694      10.97680945      13.50809898
H       13.88100754      14.89752488      10.60169768
O       12.98654593      14.76810146      10.22476788
H       12.92635118      14.17612570      10.98789215
H       10.65780940      12.03647095       9.20092167
H       10.96881000      12.88453590      10.48506638
N       10.81797902      13.00156582       9.43399752
H       11.82470607      13.23699944       9.03004103
