7
Properties=species:S:1:pos:R:3:REF_forces:R:3 REF_energy=-4163.811476384329 charge=1 spin=1 external_field="0.0 0.0 0.0" config_type=ORCA_DFT source_file=r09_hot_w_h2formation_frame_001.out orca_step=0 pbc="F F F"
O        8.63691100      10.49791600       6.64683300      -7.00435104       2.59492818      -0.08281668
H        9.54627000       9.26029300       7.39471000       0.47300419      -2.07063737       3.81013405
H        9.00000000       9.00000000       9.00000000      -0.73768241       0.37078555       0.26970057
H        7.71143200      11.05545600       6.45832000       2.31322452      -1.35812143      -1.14698741
O        9.66632100       8.85263200       8.34092900       0.90811905       0.53711064      -3.28885000
H        7.88376000      10.13409300       7.52008500       4.22808778       1.02881796      -1.45957213
H        9.22957400      11.29582700       6.36612800      -0.18040214      -1.10288353       1.89839165
10
Properties=species:S:1:pos:R:3:REF_forces:R:3 REF_energy=-6243.655617358854 charge=1 spin=1 external_field="0.0 0.0 0.0" config_type=ORCA_DFT source_file=r09_hot_w_h2formation_frame_004.out orca_step=0 pbc="F F F"
H        7.56171200      10.72687600       9.00936300      -4.00348817      -0.49988194       1.14731677
H        6.09802900      10.11359400       8.35842000      -2.11843906       1.01341160      -2.50070068
O        8.55833500      10.56737000       6.84004200      -4.37580189      -1.47469479       3.14099299
H        9.68618900       9.52599500       7.77365400       1.25303812      -2.70603913       1.76310831
H        9.00000000       9.00000000       9.00000000      -1.44338009      -0.54947245       1.88868609
H        7.60692700      10.89969400       6.85759100       1.92154114       0.44013885      -1.78234628
O        9.75757000       8.80234300       8.49268600       0.83804281       2.21235401      -2.86039223
H        8.20984800      10.18168200       8.15402900       0.60822551      -0.59867406      -2.83241420
O        6.75377200      10.02805200       8.99246800       6.81773146       0.75760707       2.25378169
H        9.27117100      11.08358400       6.47905200       0.50253022       1.40525083      -0.21803244
